FCC Cu                                  
   1.00000000000000     
     7.2600002289000001    0.0000000000000000    0.0000000000000000
     0.0000000000000000    7.2600002289000001    0.0000000000000000
     0.0000000000000000    0.0000000000000000   27.7049999237000009
   Cu   H 
    64     2
Direct
 -0.0025021365611308 -0.0019289757857061  0.0087098184665289
 -0.0025486408512411  0.4983631165227265  0.0086964104307828
  0.4973881496891642 -0.0017076416168640  0.0086728740255302
  0.4974863785181915  0.4981353462705235  0.0086808611681988
  0.2476983543913347  0.2481793974320745  0.0086674254463930
  0.2474406221624651  0.7482384659570859  0.0086899775656610
  0.7472444608371549  0.2482255319301008  0.0086772023528891
  0.7475357143452251  0.7481396990956107  0.0086861389426510
 -0.0024513235512114  0.2482847004528971  0.0710454459134378
 -0.0024688973477317  0.7482685413924426  0.0709291501341404
  0.4975543873358048  0.2482638548772683  0.0709496281726741
  0.4975976655500614  0.7482960465847793  0.0711262880391068
  0.2476143834405682 -0.0017276867318499  0.0709726278388884
  0.2475934733735495  0.4982682416303968  0.0709638486291370
  0.7475006978065698 -0.0017541427719129  0.0709714005329540
  0.7475205833679931  0.4982876828113956  0.0709729909157712
 -0.0025633407080099 -0.0022652802682013  0.1346777626795449
 -0.0025938595576890  0.4986044029530436  0.1346816356174352
  0.4973918163415958 -0.0015183010519877  0.1346453117405568
  0.4973531578509168  0.4977949223309975  0.1346486657510915
  0.2477704944161957  0.2482160087704056  0.1346737313557126
  0.2469758887207894  0.7481593987438304  0.1346090748662638
  0.7469088232200212  0.2482444881124166  0.1346810742365732
  0.7476333176139131  0.7481848458169205  0.1346151963333608
 -0.0029079397204178  0.2480430383084304  0.1972485118873984
 -0.0029021331814366  0.7480164044404003  0.1978249994385858
  0.4970633996793977  0.2480443403478939  0.1978436430751946
  0.4970624310397931  0.7479936051593316  0.1974005394597594
  0.2475312953158202 -0.0023909424460556  0.1974575143815329
  0.2475503336414722  0.4984774361373325  0.1974526840773883
  0.7467743142766475 -0.0022760832966964  0.1974611052927550
  0.7466782916755691  0.4984270107948968  0.1974762808206710
 -0.0031336556924362 -0.0017984994656583  0.2598683627439926
 -0.0031123416506825  0.4974836987076878  0.2598483165372498
  0.4968696767978248 -0.0023991183963343  0.2601569134163017
  0.4969272761910455  0.4980025416128511  0.2601935711760274
  0.2464907529912078  0.2478702732757886  0.2597910674377917
  0.2470335282846283  0.7479212123511572  0.2601458894482284
  0.7471531975531094  0.2478496350302292  0.2598436080377096
  0.7465226154307302  0.7478813394789170  0.2601056704729171
 -0.0035777658853541  0.2474980642898693  0.3227826980999033
 -0.0038552868694338  0.7475724900129934  0.3227537965222699
  0.4964939113919528  0.2473898277138162  0.3228704514926041
  0.4963611365422139  0.7475268194313673  0.3229624336798307
  0.2464298195311366 -0.0023010556948130  0.3226638082743093
  0.2464548358025897  0.4974827009853650  0.3226302759826145
  0.7464396815569255 -0.0024775036739329  0.3226912831485302
  0.7465453166891147  0.4975365455752023  0.3226844731787407
 -0.0039044805527167 -0.0031402477917454  0.3860769649406229
 -0.0040850606589349  0.4976246260498162  0.3860135484793519
  0.4959333990934442 -0.0043918017244362  0.3867649967389984
  0.4959472518285112  0.4986297065071577  0.3866828745875163
  0.2466421637581111  0.2471373031971320  0.3859594586862596
  0.2471681713217024  0.7472895060698749  0.3865075870026161
  0.7456705791597970  0.2472734625726697  0.3860327061331174
  0.7440000618178939  0.7472448014964095  0.3866778571505036
 -0.0044405303670416  0.2467257023289536  0.4482858552364860
 -0.0046053933661846  0.7470365716812006  0.4481149227568226
  0.4957489132485459  0.2470285681088902  0.4484740473337616
  0.4956278745122348  0.7475693805574395  0.4509686031009073
  0.2440468543220401 -0.0004787957823302  0.4483750709339887
  0.2427300226526357  0.4935592906141492  0.4480760435565869
  0.7473216164236774 -0.0008479888445622  0.4483948501180608
  0.7474696639291635  0.4949494138552613  0.4483415583739369
  0.4892520058418790  0.6777920224627372  0.5119596096320785
  0.4675040221711561  0.7870306597658669  0.5133829456427997
 
  0.00000000E+00  0.00000000E+00  0.00000000E+00
  0.00000000E+00  0.00000000E+00  0.00000000E+00
  0.00000000E+00  0.00000000E+00  0.00000000E+00
  0.00000000E+00  0.00000000E+00  0.00000000E+00
  0.00000000E+00  0.00000000E+00  0.00000000E+00
  0.00000000E+00  0.00000000E+00  0.00000000E+00
  0.00000000E+00  0.00000000E+00  0.00000000E+00
  0.00000000E+00  0.00000000E+00  0.00000000E+00
  0.00000000E+00  0.00000000E+00  0.00000000E+00
  0.00000000E+00  0.00000000E+00  0.00000000E+00
  0.00000000E+00  0.00000000E+00  0.00000000E+00
  0.00000000E+00  0.00000000E+00  0.00000000E+00
  0.00000000E+00  0.00000000E+00  0.00000000E+00
  0.00000000E+00  0.00000000E+00  0.00000000E+00
  0.00000000E+00  0.00000000E+00  0.00000000E+00
  0.00000000E+00  0.00000000E+00  0.00000000E+00
  0.00000000E+00  0.00000000E+00  0.00000000E+00
  0.00000000E+00  0.00000000E+00  0.00000000E+00
  0.00000000E+00  0.00000000E+00  0.00000000E+00
  0.00000000E+00  0.00000000E+00  0.00000000E+00
  0.00000000E+00  0.00000000E+00  0.00000000E+00
  0.00000000E+00  0.00000000E+00  0.00000000E+00
  0.00000000E+00  0.00000000E+00  0.00000000E+00
  0.00000000E+00  0.00000000E+00  0.00000000E+00
  0.00000000E+00  0.00000000E+00  0.00000000E+00
  0.00000000E+00  0.00000000E+00  0.00000000E+00
  0.00000000E+00  0.00000000E+00  0.00000000E+00
  0.00000000E+00  0.00000000E+00  0.00000000E+00
  0.00000000E+00  0.00000000E+00  0.00000000E+00
  0.00000000E+00  0.00000000E+00  0.00000000E+00
  0.00000000E+00  0.00000000E+00  0.00000000E+00
  0.00000000E+00  0.00000000E+00  0.00000000E+00
  0.00000000E+00  0.00000000E+00  0.00000000E+00
  0.00000000E+00  0.00000000E+00  0.00000000E+00
  0.00000000E+00  0.00000000E+00  0.00000000E+00
  0.00000000E+00  0.00000000E+00  0.00000000E+00
  0.00000000E+00  0.00000000E+00  0.00000000E+00
  0.00000000E+00  0.00000000E+00  0.00000000E+00
  0.00000000E+00  0.00000000E+00  0.00000000E+00
  0.00000000E+00  0.00000000E+00  0.00000000E+00
  0.00000000E+00  0.00000000E+00  0.00000000E+00
  0.00000000E+00  0.00000000E+00  0.00000000E+00
  0.00000000E+00  0.00000000E+00  0.00000000E+00
  0.00000000E+00  0.00000000E+00  0.00000000E+00
  0.00000000E+00  0.00000000E+00  0.00000000E+00
  0.00000000E+00  0.00000000E+00  0.00000000E+00
  0.00000000E+00  0.00000000E+00  0.00000000E+00
  0.00000000E+00  0.00000000E+00  0.00000000E+00
  0.00000000E+00  0.00000000E+00  0.00000000E+00
  0.00000000E+00  0.00000000E+00  0.00000000E+00
  0.00000000E+00  0.00000000E+00  0.00000000E+00
  0.00000000E+00  0.00000000E+00  0.00000000E+00
  0.00000000E+00  0.00000000E+00  0.00000000E+00
  0.00000000E+00  0.00000000E+00  0.00000000E+00
  0.00000000E+00  0.00000000E+00  0.00000000E+00
  0.00000000E+00  0.00000000E+00  0.00000000E+00
  0.00000000E+00  0.00000000E+00  0.00000000E+00
  0.00000000E+00  0.00000000E+00  0.00000000E+00
  0.00000000E+00  0.00000000E+00  0.00000000E+00
  0.00000000E+00  0.00000000E+00  0.00000000E+00
  0.00000000E+00  0.00000000E+00  0.00000000E+00
  0.00000000E+00  0.00000000E+00  0.00000000E+00
  0.00000000E+00  0.00000000E+00  0.00000000E+00
  0.00000000E+00  0.00000000E+00  0.00000000E+00
  0.00000000E+00  0.00000000E+00  0.00000000E+00
  0.00000000E+00  0.00000000E+00  0.00000000E+00
