FCC Cu                                  
   1.00000000000000     
     5.1335954666000001    0.0000000000000000    0.0000000000000000
     2.5667977333000001    4.4458240868000001    0.0000000000000000
     0.0000000000000000    0.0000000000000000   29.6704711914000008
   Cu   H 
    32     2
Direct
  0.0000510263381433 -0.0000255131690716 -0.0007398060012389
  0.9999999999183657  0.4999999999100311 -0.0006979537551252
  0.4999744867724932 -0.0000255131690716 -0.0007398060012389
  0.4999744868856542  0.5000510262481743 -0.0007398060012389
  0.1666807734490992  0.1666384532381619  0.0685935485917324
  0.1666807735622603  0.6666807732459621  0.0685935485917324
  0.6666666666913983  0.1666666666366794  0.0685610928612746
  0.6666384534060487  0.6666807732459621  0.0685935485917324
  0.3333583485937394  0.3333208256289249  0.1364912891055389
  0.3333333334180466  0.8333333331833828  0.1364922823119358
  0.8333208256020168  0.3333208256289249  0.1364912891055389
  0.8333208257151850  0.8333583484722363  0.1364912891055389
  0.0000009050397410 -0.0000004525198705  0.2048886754536720
  0.9999999999183657  0.4999999999100311  0.2049045640241190
  0.4999995474216941 -0.0000004525198705  0.2048886754536720
  0.4999995475348551  0.5000009049497723  0.2048886754536720
  0.1667075010873997  0.1665849979615606  0.2731789830065580
  0.1667075012005607  0.6667075008842627  0.2731789830065580
  0.6666666666913983  0.1666666666366794  0.2731256041166409
  0.6665849981294480  0.6667075008842627  0.2731789830065580
  0.3334722482877039  0.3332638757819423  0.3414981208210662
  0.3333333334180466  0.8333333331833828  0.3415643731780201
  0.8332638757550340  0.3332638757819423  0.3414981208210662
  0.8332638758682022  0.8334722481662015  0.3414981208210662
 -0.0001578647064705  0.0000789323532352  0.4092712690824019
  0.9999999999183657  0.4999999999100311  0.4092805785997453
  0.5000789322947998  0.0000789323532352  0.4092712690824019
  0.5000789324079609  0.4998421352035609  0.4092712690824019
  0.1669043396395459  0.1661913208572688  0.4783997332422143
  0.1669043397527069  0.6669043394364085  0.4783997332422143
  0.6666666666913983  0.1666666666366794  0.4784318727974745
  0.6661913210251558  0.6669043394364085  0.4783997332422143
  0.0000000001261498  0.4999999999100311  0.5618084708108669
  0.0000000001261498  0.4999999999100311  0.5873267715811136
 
  0.00000000E+00  0.00000000E+00  0.00000000E+00
  0.00000000E+00  0.00000000E+00  0.00000000E+00
  0.00000000E+00  0.00000000E+00  0.00000000E+00
  0.00000000E+00  0.00000000E+00  0.00000000E+00
  0.00000000E+00  0.00000000E+00  0.00000000E+00
  0.00000000E+00  0.00000000E+00  0.00000000E+00
  0.00000000E+00  0.00000000E+00  0.00000000E+00
  0.00000000E+00  0.00000000E+00  0.00000000E+00
  0.00000000E+00  0.00000000E+00  0.00000000E+00
  0.00000000E+00  0.00000000E+00  0.00000000E+00
  0.00000000E+00  0.00000000E+00  0.00000000E+00
  0.00000000E+00  0.00000000E+00  0.00000000E+00
  0.00000000E+00  0.00000000E+00  0.00000000E+00
  0.00000000E+00  0.00000000E+00  0.00000000E+00
  0.00000000E+00  0.00000000E+00  0.00000000E+00
  0.00000000E+00  0.00000000E+00  0.00000000E+00
  0.00000000E+00  0.00000000E+00  0.00000000E+00
  0.00000000E+00  0.00000000E+00  0.00000000E+00
  0.00000000E+00  0.00000000E+00  0.00000000E+00
  0.00000000E+00  0.00000000E+00  0.00000000E+00
  0.00000000E+00  0.00000000E+00  0.00000000E+00
  0.00000000E+00  0.00000000E+00  0.00000000E+00
  0.00000000E+00  0.00000000E+00  0.00000000E+00
  0.00000000E+00  0.00000000E+00  0.00000000E+00
  0.00000000E+00  0.00000000E+00  0.00000000E+00
  0.00000000E+00  0.00000000E+00  0.00000000E+00
  0.00000000E+00  0.00000000E+00  0.00000000E+00
  0.00000000E+00  0.00000000E+00  0.00000000E+00
  0.00000000E+00  0.00000000E+00  0.00000000E+00
  0.00000000E+00  0.00000000E+00  0.00000000E+00
  0.00000000E+00  0.00000000E+00  0.00000000E+00
  0.00000000E+00  0.00000000E+00  0.00000000E+00
  0.00000000E+00  0.00000000E+00  0.00000000E+00
  0.00000000E+00  0.00000000E+00  0.00000000E+00
