FCC Cu                                  
   1.00000000000000     
     3.6300001144000000    0.0000000000000000    0.0000000000000000
     0.0000000000000000    3.6300001144000000    0.0000000000000000
     0.0000000000000000    0.0000000000000000   27.7049999237000009
   Cu   H 
    16     2
Direct
  0.0001602222028666 -0.0001602222028666 -0.0008568557986739
  0.4998397777420376  0.5001602221477711 -0.0008568557986739
  0.0001543281383996  0.5001543280833042  0.0621260609686308
  0.4998456718065052 -0.0001543281383996  0.0621260609686308
 -0.0000345154995389  0.0000345154995389  0.1257025980603967
  0.5000345154444436  0.4999654844453655  0.1257025980603967
  0.0001560970401322  0.5001560969850366  0.1887581653261563
  0.4998439029047723 -0.0001560970401322  0.1887581653261563
 -0.0000030744315931  0.0000030744315931  0.2509757574888585
  0.5000030743764974  0.4999969255133109  0.2509757574888585
  0.0000087049322112  0.5000087048771160  0.3140211413718391
  0.4999912950126935 -0.0000087049322112  0.3140211413718391
  0.0002292838523532 -0.0002292838523532  0.3775001194647728
  0.4997707160925511  0.5002292837972574  0.3775001194647728
  0.0001497589282763  0.5001497588731808  0.4400910809847542
  0.4998502410166286 -0.0001497589282763  0.4400910809847542
  0.7499999999173497  0.2499999998622542  0.5264401222807155
  0.7499999999173497  0.2499999998622542  0.5538071237853373
 
  0.00000000E+00  0.00000000E+00  0.00000000E+00
  0.00000000E+00  0.00000000E+00  0.00000000E+00
  0.00000000E+00  0.00000000E+00  0.00000000E+00
  0.00000000E+00  0.00000000E+00  0.00000000E+00
  0.00000000E+00  0.00000000E+00  0.00000000E+00
  0.00000000E+00  0.00000000E+00  0.00000000E+00
  0.00000000E+00  0.00000000E+00  0.00000000E+00
  0.00000000E+00  0.00000000E+00  0.00000000E+00
  0.00000000E+00  0.00000000E+00  0.00000000E+00
  0.00000000E+00  0.00000000E+00  0.00000000E+00
  0.00000000E+00  0.00000000E+00  0.00000000E+00
  0.00000000E+00  0.00000000E+00  0.00000000E+00
  0.00000000E+00  0.00000000E+00  0.00000000E+00
  0.00000000E+00  0.00000000E+00  0.00000000E+00
  0.00000000E+00  0.00000000E+00  0.00000000E+00
  0.00000000E+00  0.00000000E+00  0.00000000E+00
  0.00000000E+00  0.00000000E+00  0.00000000E+00
  0.00000000E+00  0.00000000E+00  0.00000000E+00
