FCC Cu                                  
   1.00000000000000     
     2.5667977333000001    0.0000000000000000    0.0000000000000000
     1.2833988667000000    2.2229120434000000    0.0000000000000000
     0.0000000000000000    0.0000000000000000   23.3831261599999998
   Cu
     5
Selective dynamics
Cartesian
0.0 0.0 0.0
1.2833988672821328 0.7409706809999994 2.095781537999925
2.5667977330642655 1.4819413619999988 4.1091224789213685
0.0 -0.0 6.130420305296924
1.2833988672821328 0.7409706809999994 8.112343288712731
