FCC Cu
1.0
        7.2600002289         0.0000000000         0.0000000000
        0.0000000000         5.1335954666         0.0000000000
0.0000000000 0.0000000000 21.416994
   Cu
24
Selective dynamics
Cartesian
     0	0	0	F	F	F
0	2.566797733	0	F	F	F
3.630000114	0	0	F	F	F
3.630000114	2.566797733	0	F	F	F
1.815000057	1.283398867	1.283398829	F	F	F
1.815000057	3.8501966	1.283398829	F	F	F
5.445000171	1.283398867	1.283398829	F	F	F
5.445000171	3.8501966	1.283398829	F	F	F
0	0	2.566797656	T	T	T
0	2.566797733	2.566797656	T	T	T
3.630000114	0	2.566797656	T	T	T
3.630000114	2.566797733	2.566797656	T	T	T
1.815000057	1.283398867	3.850196485	T	T	T
1.815000057	3.8501966	3.850196485	T	T	T
5.445000171	1.283398867	3.850196485	T	T	T
5.445000171	3.8501966	3.850196485	T	T	T
0	0	5.133595313	T	T	T
0	2.566797733	5.133595313	T	T	T
3.630000114	0	5.133595313	T	T	T
3.630000114	2.566797733	5.133595313	T	T	T
1.815000057	1.283398867	6.416994141	T	T	T
1.815000057	3.8501966	6.416994141	T	T	T
5.445000171	1.283398867	6.416994141	T	T	T
5.445000171	3.8501966	6.416994141	T	T	T

