FCC Cu                                  
   1.00000000000000     
     7.2600002289000001    0.0000000000000000    0.0000000000000000
     0.0000000000000000    5.1335954666000001    0.0000000000000000
     0.0000000000000000    0.0000000000000000   23.9837913512999990
   Cu   H 
    32     2
Selective dynamics
Direct
  0.0000000000000000  0.0000000000000000  0.0000000000000000   F   F   F
  0.0000000000000000  0.4999999999415579  0.0000000000000000   F   F   F
  0.4999999999380194  0.0000000000000000  0.0000000000000000   F   F   F
  0.4999999999380194  0.4999999999415579  0.0000000000000000   F   F   F
  0.2499999999690061  0.2500000000681766  0.0535110904777980   F   F   F
  0.2499999999690061  0.7500000000097415  0.0535110904777980   F   F   F
  0.7499999999070255  0.2500000000681766  0.0535110904777980   F   F   F
  0.7499999999070255  0.7500000000097415  0.0535110904777980   F   F   F
  0.0000000000000000  0.0000000000000000  0.1054137052072122   F   F   F
  0.0000000000000000  0.4999999999415579  0.1054137052072122   F   F   F
  0.4999999999380194  0.0000000000000000  0.1054137052072122   F   F   F
  0.4999999999380194  0.4999999999415579  0.1054137052072122   F   F   F
  0.2500707715807489  0.2504446656995284  0.1572087897025691   T   T   T
  0.2498806550731605  0.7504351110383405  0.1572642844813138   T   T   T
  0.7499292282952826  0.2504446656995284  0.1572087897025691   T   T   T
  0.7501193448028710  0.7504351110383405  0.1572642844813138   T   T   T
  0.0000000000000000  0.0007869748837184  0.2087988912246050   T   T   T
  0.0000000000000000  0.5007091880308677  0.2088695967443859   T   T   T
  0.4999999999380194  0.0008028329244807  0.2087126791312097   T   T   T
  0.4999999999380194  0.5007770325963036  0.2086908834418016   T   T   T
  0.2499790317925380  0.2509643580922273  0.2595401904537282   T   T   T
  0.2500109281395942  0.7510581002253214  0.2596276353354823   T   T   T
  0.7500209680834934  0.2509643580922273  0.2595401904537282   T   T   T
  0.7499890717364376  0.7510581002253214  0.2596276353354823   T   T   T
  0.0000000000000000  0.0013899591065662  0.3145033655517558   T   T   T
  0.0000000000000000  0.5012228070883157  0.3145500531556102   T   T   T
  0.4999999999380194  0.0013792356610288  0.3140959253757712   T   T   T
  0.4999999999380194  0.5011445835934687  0.3141476774320354   T   T   T
  0.2500236172065624  0.2515874289064106  0.3618490627297891   T   T   T
  0.2495587895063284  0.7514312795017367  0.3619230323368697   T   T   T
  0.7499763826694700  0.2515874289064106  0.3618490627297891   T   T   T
  0.7504412103697025  0.7514312795017367  0.3619230323368697   T   T   T
  0.4999999999380194  0.7376859314968395  0.4662393459628478   T   T   T
  0.4999999999380194  0.8760034403638215  0.4547570679165635   T   T   T
 
  0.00000000E+00  0.00000000E+00  0.00000000E+00
  0.00000000E+00  0.00000000E+00  0.00000000E+00
  0.00000000E+00  0.00000000E+00  0.00000000E+00
  0.00000000E+00  0.00000000E+00  0.00000000E+00
  0.00000000E+00  0.00000000E+00  0.00000000E+00
  0.00000000E+00  0.00000000E+00  0.00000000E+00
  0.00000000E+00  0.00000000E+00  0.00000000E+00
  0.00000000E+00  0.00000000E+00  0.00000000E+00
  0.00000000E+00  0.00000000E+00  0.00000000E+00
  0.00000000E+00  0.00000000E+00  0.00000000E+00
  0.00000000E+00  0.00000000E+00  0.00000000E+00
  0.00000000E+00  0.00000000E+00  0.00000000E+00
  0.00000000E+00  0.00000000E+00  0.00000000E+00
  0.00000000E+00  0.00000000E+00  0.00000000E+00
  0.00000000E+00  0.00000000E+00  0.00000000E+00
  0.00000000E+00  0.00000000E+00  0.00000000E+00
  0.00000000E+00  0.00000000E+00  0.00000000E+00
  0.00000000E+00  0.00000000E+00  0.00000000E+00
  0.00000000E+00  0.00000000E+00  0.00000000E+00
  0.00000000E+00  0.00000000E+00  0.00000000E+00
  0.00000000E+00  0.00000000E+00  0.00000000E+00
  0.00000000E+00  0.00000000E+00  0.00000000E+00
  0.00000000E+00  0.00000000E+00  0.00000000E+00
  0.00000000E+00  0.00000000E+00  0.00000000E+00
  0.00000000E+00  0.00000000E+00  0.00000000E+00
  0.00000000E+00  0.00000000E+00  0.00000000E+00
  0.00000000E+00  0.00000000E+00  0.00000000E+00
  0.00000000E+00  0.00000000E+00  0.00000000E+00
  0.00000000E+00  0.00000000E+00  0.00000000E+00
  0.00000000E+00  0.00000000E+00  0.00000000E+00
  0.00000000E+00  0.00000000E+00  0.00000000E+00
  0.00000000E+00  0.00000000E+00  0.00000000E+00
  0.00000000E+00  0.00000000E+00  0.00000000E+00
  0.00000000E+00  0.00000000E+00  0.00000000E+00
