FCC Cu                                  
   1.00000000000000     
     7.7003931998999997    0.0000000000000000    0.0000000000000000
     3.8501965999999999    6.6687361303000001    0.0000000000000000
     0.0000000000000000    0.0000000000000000   29.6704711914000008
   Cu
    72
Selective dynamics
Cartesian
0.0 0.0 0.0
8.75296764682542e-10 2.222912043000021 0.0
11.550589799284543 4.44582408699999 0.0
3.850196599516693 0.0 0.0
3.850196600391908 2.222912043000021 0.0
3.8501966004011816 4.44582408699999 0.0
7.700393200533333 0.0 0.0
7.700393199908602 2.222912043000021 0.0
7.700393199917876 4.44582408699999 0.0
1.283398867297312 0.7409706809999909 2.095781567999961
1.2833988681726087 2.9638827240000114 2.095781567999961
1.283398866681855 5.186794767999981 2.095781567999961
5.133595466814005 0.7409706809999909 2.095781567999961
5.13359546768922 2.9638827240000114 2.095781567999961
5.133595467698494 5.186794767999981 2.095781567999961
8.983792067830645 0.7409706809999909 2.095781567999961
8.983792067205913 2.9638827240000114 2.095781567999961
8.983792067215187 5.186794767999981 2.095781567999961
2.566797733094596 1.4819413619999817 4.13913425645298
2.5667977339698926 3.7048534050000024 4.13913425645298
2.566797732479139 5.927765449000019 4.13913425645298
6.4169943326112895 1.4819413619999817 4.13913425645298
6.416994333486587 3.7048534050000024 4.13913425645298
6.41699433349586 5.927765449000019 4.13913425645298
10.26719093362793 1.4819413619999817 4.13913425645298
10.26719093300328 3.7048534050000024 4.13913425645298
10.267190928512472 5.927765449000019 4.13913425645298
0.0 -0.0 6.177704779184919
8.75296764682542e-10 2.222912043000021 6.177704779184919
11.550589799284543 4.44582408699999 6.177704779184919
3.850196599516693 -0.0 6.177704779184919
3.850196600391908 2.222912043000021 6.177704779184919
3.8501966004011816 4.44582408699999 6.177704779184919
7.700393200533333 -0.0 6.177704779184919
7.700393199908602 2.222912043000021 6.177704779184919
7.700393199917876 4.44582408699999 6.177704779184919
1.283398867297312 0.7409706809999909 8.230550134962135
1.2833988681726087 2.9638827240000114 8.230550134962135
1.283398866681855 5.186794767999981 8.230550134962135
5.133595466814005 0.7409706809999909 8.230550134962138
5.13359546768922 2.9638827240000114 8.230550134962135
5.133595467698494 5.186794767999981 8.230550134962135
8.983792067830645 0.7409706809999909 8.230550134962135
8.983792067205913 2.9638827240000114 8.230550134962135
8.983792067215187 5.186794767999981 8.230550134962135
2.566797733094596 1.4819413619999817 10.266737817621458
2.5667977339698926 3.7048534050000024 10.266737817621458
2.566797732479139 5.927765449000019 10.266737817621458
6.4169943326112895 1.4819413619999817 10.266737817621458
6.416994333486587 3.7048534050000024 10.266737817621458
6.41699433349586 5.927765449000019 10.266737817621458
10.26719093362793 1.4819413619999817 10.266737817621458
10.26719093300328 3.7048534050000024 10.266737817621458
10.267190928512472 5.927765449000019 10.266737817621458
0.0 0.0 12.310114183963224
8.75296764682542e-10 2.222912043000021 12.310114183963224
11.550589799284543 4.44582408699999 12.310114183963224
3.850196599516693 -0.0 12.310114183963224
3.850196600391908 2.222912043000021 12.310114183963224
3.8501966004011816 4.44582408699999 12.310114183963224
7.700393200533333 -0.0 12.310114183963224
7.700393199908602 2.222912043000021 12.310114183963224
7.700393199917876 4.44582408699999 12.310114183963224
1.283398867297312 0.7409706809999909 14.351725247705962
1.2833988681726087 2.9638827240000114 14.351725247705962
1.283398866681855 5.186794767999981 14.351725247705962
5.133595466814005 0.7409706809999909 14.351725247705962
5.13359546768922 2.9638827240000114 14.351725247705962
5.133595467698494 5.186794767999981 14.351725247705962
8.983792067830645 0.7409706809999909 14.351725247705962
8.983792067205913 2.9638827240000114 14.351725247705962
8.983792067215187 5.186794767999981 14.351725247705962
