FCC Cu                                  
1.0
        5.1335954666         0.0000000000         0.0000000000
        2.5667977333         4.4458240868         0.0000000000
        0.0000000000         0.0000000000        25.4789085388
   Cu
   24
Cartesian
     0.000000000         0.000000000         0.000000000
     1.283398866         2.222912043         0.000000000
     2.566797733         0.000000000         0.000000000
     3.850196600         2.222912043         0.000000000
     1.283398867         0.740970681         2.095781608
     2.566797734         2.963882724         2.095781608
     3.850196600         0.740970681         2.095781608
     5.133595467         2.963882724         2.095781608
     2.566797733         1.481941362         4.102951408
     3.850196600         3.704853405         4.102951408
     5.133595466         1.481941362         4.102951408
     6.416994333         3.704853405         4.102951408
     0.000000000         0.000000000         6.135149694
     1.283398866         2.222912043         6.135149694
     2.566797733         0.000000000         6.135149694
     3.850196600         2.222912043         6.135149694
     1.283398867         0.740970681         8.148831757
     2.566797734         2.963882724         8.148831757
     3.850196600         0.740970681         8.148831757
     5.133595467         2.963882724         8.148831757
     2.566797733         1.481941362        10.198296716
     3.850196600         3.704853405        10.198296716
     5.133595466         1.481941362        10.198296716
     6.416994333         3.704853405        10.198296716
