FCC Cu
1.0
        5.1335954666         0.0000000000         0.0000000000
        2.5667977333         4.4458240868         0.0000000000
        0.0000000000         0.0000000000        25.4789085388
   Cu
   24
Selective dynamics
Cartesian
0	0	0	F	F	F
1.283398867	2.222912043	0	F	F	F
2.566797733	0	0	F	F	F
3.8501966	2.222912043	0	F	F	F
1.283398867	0.740970681	2.095781608	F	F	F
2.566797734	2.963882724	2.095781608	F	F	F
3.8501966	0.740970681	2.095781608	F	F	F
5.133595467	2.963882724	2.095781608	F	F	F
2.566797733	1.481941362	4.191563216	T	T	T
3.8501966	3.704853405	4.191563216	T	T	T
5.133595466	1.481941362	4.191563216	T	T	T
6.416994333	3.704853405	4.191563216	T	T	T
0	0	6.287344824	T	T	T
1.283398867	2.222912043	6.287344824	T	T	T
2.566797733	0	6.287344824	T	T	T
3.8501966	2.222912043	6.287344824	T	T	T
1.283398867	0.740970681	8.383126432	T	T	T
2.566797734	2.963882724	8.383126432	T	T	T
3.8501966	0.740970681	8.383126432	T	T	T
5.133595467	2.963882724	8.383126432	T	T	T
2.566797733	1.481941362	10.47890804	T	T	T
3.8501966	3.704853405	10.47890804	T	T	T
5.133595466	1.481941362	10.47890804	T	T	T
6.416994333	3.704853405	10.47890804	T	T	T
