FCC Cu                                  
   1.00000000000000     
     7.2600002289000001    0.0000000000000000    0.0000000000000000
     0.0000000000000000    7.2600002289000001    0.0000000000000000
     0.0000000000000000    0.0000000000000000   24.0749999999999993
   Cu
    48
Selective dynamics
Cartesian
0.0 0.0 0.0
0.0 3.630000114000021 0.0
3.630000114000021 0.0 0.0
3.630000114000021 3.630000114000021 0.0
1.8150000569999842 1.8150000569999842 0.0
1.8150000569999842 5.445000171000005 0.0
5.445000171000005 1.8150000569999842 0.0
5.445000171000005 5.445000171000005 0.0
0.0 1.8150000569999842 1.8150000260000643
0.0 5.445000171000005 1.8150000260000643
3.630000114000021 1.8150000569999842 1.8150000260000643
3.630000114000021 5.445000171000005 1.8150000260000643
1.8150000569999842 0.0 1.8150000260000643
1.8150000569999842 3.630000114000021 1.8150000260000643
5.445000171000005 0.0 1.8150000260000643
5.445000171000005 3.630000114000021 1.8150000260000643
-0.0 0.0 3.564124066582971
0.0 3.630000114000021 3.564124066582971
3.630000114000021 0.0 3.564124066582971
3.630000114000021 3.630000114000021 3.564124066582971
1.8150000569999842 1.8150000569999842 3.564124066582971
1.8150000569999842 5.445000171000005 3.564124066582971
5.445000171000005 1.8150000569999842 3.564124066582971
5.445000171000005 5.445000171000005 3.564124066582971
-0.0 1.8150000569999842 5.3122070477339385
0.0 5.445000171000005 5.3122070477339385
3.630000114000021 1.8150000569999842 5.3122070477339385
3.630000114000021 5.445000171000005 5.3122070477339385
1.8150000569999842 0.0 5.3122070477339385
1.8150000569999842 3.630000114000021 5.3122070477339385
5.445000171000005 -0.0 5.3122070477339385
5.445000171000005 3.630000114000021 5.3122070477339385
-0.0 -0.0 7.067049170877889
0.0 3.630000114000021 7.067049170877889
3.630000114000021 -0.0 7.067049170877889
3.630000114000021 3.630000114000021 7.067049170877889
1.8150000569999842 1.8150000569999842 7.067049170877889
1.8150000569999842 5.445000171000005 7.067049170877889
5.445000171000005 1.8150000569999842 7.067049170877889
5.445000171000005 5.445000171000005 7.067049170877889
-0.0 1.8150000569999842 8.78272017327776
-0.0 5.445000171000005 8.78272017327776
3.630000114000021 1.8150000569999842 8.78272017327776
3.630000114000021 5.445000171000005 8.78272017327776
1.8150000569999842 0.0 8.78272017327776
1.8150000569999842 3.630000114000021 8.78272017327776
5.445000171000005 0.0 8.78272017327776
5.445000171000005 3.630000114000021 8.78272017327776
