FCC Cu                                  
   1.00000000000000     
     5.1335954666000001    0.0000000000000000    0.0000000000000000
     2.5667977333000001    4.4458240868000001    0.0000000000000000
     0.0000000000000000    0.0000000000000000   29.6704711914000008
   Cu   H 
    32     2
Direct
 -0.0000106406637836  0.0001903052339799 -0.0019022471599193
 -0.0001252991309726  0.5002505980087077 -0.0020059730503571
  0.4998203353713686  0.0001903052339799 -0.0019022471599193
  0.4996963762567483  0.5006072475059864 -0.0018884070485037
  0.1669435212678294  0.1661129576007016  0.0673802671399481
  0.1668998867750382  0.6661209844908161  0.0674273113076513
  0.6669070653313574  0.1661858693567623  0.0673504855993281
  0.6669791289484170  0.6661209844908161  0.0674273113076513
  0.3348240891186371  0.3308786464759481  0.1352296194180660
  0.3343703612226887  0.8312592775740986  0.1353357022204977
  0.8342972642300956  0.3308786464759481  0.1352296194180660
  0.8344526138521235  0.8310947721983599  0.1352533418351711
  0.0028766973817724 -0.0057428279405917  0.2035937528541655
  0.0030253940051471  0.4939492117364684  0.2035372003833957
  0.5028661305003839 -0.0057428279405917  0.2035937528541655
  0.5028340780766209  0.4943318438662422  0.2035690341877678
  0.1711382743414489  0.1577234514534623  0.2717712333055619
  0.1718303867424754  0.6570484710485117  0.2717550803611369
  0.6716779009317482  0.1566441981559787  0.2717899508496710
  0.6711211424232838  0.6570484710485117  0.2717550803611369
  0.3396354752281369  0.3213249532258500  0.3401497270601990
  0.3389748886377996  0.8220502227438768  0.3400988340400833
  0.8390395713706934  0.3213249532258500  0.3401497270601990
  0.8395660284239116  0.8208679430547835  0.3401481571506396
  0.0067167780194322 -0.0130693206356074  0.4079808062068355
  0.0064510310383244  0.4870979376701136  0.4079185922954958
  0.5063525425577398 -0.0130693206356074  0.4079808062068355
  0.5064991566419699  0.4870016867355442  0.4079061162874288
  0.1734301938391881  0.1531396124579839  0.4772855084202560
  0.1740604814900190  0.6523798622510720  0.4771616179894157
  0.6738560859301248  0.1522878281592261  0.4771175916028161
  0.6735596564731799  0.6523798622510720  0.4771616179894157
 -0.0769394434631792  0.6538788870886889  0.5716444156943523
  0.8791405586854225  0.7417188827914780  0.5933968664062135
 
  0.00000000E+00  0.00000000E+00  0.00000000E+00
  0.00000000E+00  0.00000000E+00  0.00000000E+00
  0.00000000E+00  0.00000000E+00  0.00000000E+00
  0.00000000E+00  0.00000000E+00  0.00000000E+00
  0.00000000E+00  0.00000000E+00  0.00000000E+00
  0.00000000E+00  0.00000000E+00  0.00000000E+00
  0.00000000E+00  0.00000000E+00  0.00000000E+00
  0.00000000E+00  0.00000000E+00  0.00000000E+00
  0.00000000E+00  0.00000000E+00  0.00000000E+00
  0.00000000E+00  0.00000000E+00  0.00000000E+00
  0.00000000E+00  0.00000000E+00  0.00000000E+00
  0.00000000E+00  0.00000000E+00  0.00000000E+00
  0.00000000E+00  0.00000000E+00  0.00000000E+00
  0.00000000E+00  0.00000000E+00  0.00000000E+00
  0.00000000E+00  0.00000000E+00  0.00000000E+00
  0.00000000E+00  0.00000000E+00  0.00000000E+00
  0.00000000E+00  0.00000000E+00  0.00000000E+00
  0.00000000E+00  0.00000000E+00  0.00000000E+00
  0.00000000E+00  0.00000000E+00  0.00000000E+00
  0.00000000E+00  0.00000000E+00  0.00000000E+00
  0.00000000E+00  0.00000000E+00  0.00000000E+00
  0.00000000E+00  0.00000000E+00  0.00000000E+00
  0.00000000E+00  0.00000000E+00  0.00000000E+00
  0.00000000E+00  0.00000000E+00  0.00000000E+00
  0.00000000E+00  0.00000000E+00  0.00000000E+00
  0.00000000E+00  0.00000000E+00  0.00000000E+00
  0.00000000E+00  0.00000000E+00  0.00000000E+00
  0.00000000E+00  0.00000000E+00  0.00000000E+00
  0.00000000E+00  0.00000000E+00  0.00000000E+00
  0.00000000E+00  0.00000000E+00  0.00000000E+00
  0.00000000E+00  0.00000000E+00  0.00000000E+00
  0.00000000E+00  0.00000000E+00  0.00000000E+00
  0.00000000E+00  0.00000000E+00  0.00000000E+00
  0.00000000E+00  0.00000000E+00  0.00000000E+00
