FCC Cu                                  
   1.00000000000000     
     2.5667977333000001    0.0000000000000000    0.0000000000000000
     1.2833988667000000    2.2229120434000000    0.0000000000000000
     0.0000000000000000    0.0000000000000000   29.6704711914000008
   Cu   H 
     8     2
Direct
  0.0004012983035063 -0.0008025966070126 -0.0029919236556811
  0.3345103795006697  0.3309792412583855  0.0643404603888230
  0.6694153504391773  0.6611692988619133  0.1325386402742876
  0.0046933185592435 -0.0093866371184870  0.2010231318404234
  0.3384677719377004  0.3230644563843235  0.2688160447726791
  0.6722979315716392  0.6554041365969902  0.3374091271069355
  0.0086825548961339 -0.0173651097922677  0.4056444967110698
  0.3434047987947270  0.3131904026702706  0.4730572195763779
 -0.0506987318978110  0.1013974640813240  0.5520077141173517
  0.8443607497763014  0.3112785007200187  0.5720813756950764
 
  0.00000000E+00  0.00000000E+00  0.00000000E+00
  0.00000000E+00  0.00000000E+00  0.00000000E+00
  0.00000000E+00  0.00000000E+00  0.00000000E+00
  0.00000000E+00  0.00000000E+00  0.00000000E+00
  0.00000000E+00  0.00000000E+00  0.00000000E+00
  0.00000000E+00  0.00000000E+00  0.00000000E+00
  0.00000000E+00  0.00000000E+00  0.00000000E+00
  0.00000000E+00  0.00000000E+00  0.00000000E+00
  0.00000000E+00  0.00000000E+00  0.00000000E+00
  0.00000000E+00  0.00000000E+00  0.00000000E+00
