FCC Cu                                  
   1.00000000000000     
     3.6300001144000000    0.0000000000000000    0.0000000000000000
     0.0000000000000000    2.5667977333000001    0.0000000000000000
     0.0000000000000000    0.0000000000000000   23.9837913512999990
   Cu   H 
     8     2
Direct
  0.0000000000000000  0.0000000000000000 -0.0006646469229568
  0.4999999999449045  0.5000000001363532  0.0465579293473123
  0.0000000000000000  0.0000000000000000  0.1009678154445512
  0.4999999999449045  0.5000000001363532  0.1531047768934761
  0.0000000000000000  0.0000000000000000  0.2059304728872471
  0.4999999999449045  0.5000000001363532  0.2582584455811334
  0.0000000000000000  0.0000000000000000  0.3123885556851571
  0.4999999999449045  0.5000000001363532  0.3596498779345061
  0.4999999998347207  0.5000000000194831  0.4441554302417181
  0.4999999998347207  0.5000000000194831  0.4760853317508140
 
  0.00000000E+00  0.00000000E+00  0.00000000E+00
  0.00000000E+00  0.00000000E+00  0.00000000E+00
  0.00000000E+00  0.00000000E+00  0.00000000E+00
  0.00000000E+00  0.00000000E+00  0.00000000E+00
  0.00000000E+00  0.00000000E+00  0.00000000E+00
  0.00000000E+00  0.00000000E+00  0.00000000E+00
  0.00000000E+00  0.00000000E+00  0.00000000E+00
  0.00000000E+00  0.00000000E+00  0.00000000E+00
  0.00000000E+00  0.00000000E+00  0.00000000E+00
  0.00000000E+00  0.00000000E+00  0.00000000E+00
