FCC Cu                                  
   1.00000000000000     
     7.2600002289000001    0.0000000000000000    0.0000000000000000
     0.0000000000000000    5.1335954666000001    0.0000000000000000
     0.0000000000000000    0.0000000000000000   20.1335949999999997
   Cu
    20
Selective dynamics
Direct
  0.0000000000000000  0.0000000000000000  0.0000000000000000   F   F   F
  0.0000000000000000  0.4999999999415650  0.0000000000000000   F   F   F
  0.4999999999380194  0.0000000000000000  0.0000000000000000   F   F   F
  0.4999999999380194  0.4999999999415650  0.0000000000000000   F   F   F
  0.2499999999690061  0.2500000000681766  0.0637441464875010   F   F   F
  0.2499999999690061  0.7500000000097415  0.0637441464875010   F   F   F
  0.7499999999070255  0.2500000000681766  0.0637441464875010   F   F   F
  0.7499999999070255  0.7500000000097415  0.0637441464875010   F   F   F
 -0.0000000000000000 -0.0000000000000000  0.1248685402175711   T   T   T
  0.0000000000000000  0.4999999999415650  0.1248685402175711   T   T   T
  0.4999999999380194  0.0000000000000000  0.1248685402175711   T   T   T
  0.4999999999380194  0.4999999999415650  0.1248685402175711   T   T   T
  0.2499999999690061  0.2500000000681766  0.1902620652302976   T   T   T
  0.2499999999690061  0.7500000000097415  0.1902620652302976   T   T   T
  0.7499999999070255  0.2500000000681766  0.1902620652302976   T   T   T
  0.7499999999070255  0.7500000000097415  0.1902620652302976   T   T   T
 -0.0000000000000000  0.0000000000000000  0.2469253091497661   T   T   T
  0.0000000000000000  0.4999999999415650  0.2469253091497660   T   T   T
  0.4999999999380194  0.0000000000000000  0.2469253091497660   T   T   T
  0.4999999999380194  0.4999999999415650  0.2469253091497660   T   T   T
 
  0.00000000E+00  0.00000000E+00  0.00000000E+00
  0.00000000E+00  0.00000000E+00  0.00000000E+00
  0.00000000E+00  0.00000000E+00  0.00000000E+00
  0.00000000E+00  0.00000000E+00  0.00000000E+00
  0.00000000E+00  0.00000000E+00  0.00000000E+00
  0.00000000E+00  0.00000000E+00  0.00000000E+00
  0.00000000E+00  0.00000000E+00  0.00000000E+00
  0.00000000E+00  0.00000000E+00  0.00000000E+00
  0.00000000E+00  0.00000000E+00  0.00000000E+00
  0.00000000E+00  0.00000000E+00  0.00000000E+00
  0.00000000E+00  0.00000000E+00  0.00000000E+00
  0.00000000E+00  0.00000000E+00  0.00000000E+00
  0.00000000E+00  0.00000000E+00  0.00000000E+00
  0.00000000E+00  0.00000000E+00  0.00000000E+00
  0.00000000E+00  0.00000000E+00  0.00000000E+00
  0.00000000E+00  0.00000000E+00  0.00000000E+00
  0.00000000E+00  0.00000000E+00  0.00000000E+00
  0.00000000E+00  0.00000000E+00  0.00000000E+00
  0.00000000E+00  0.00000000E+00  0.00000000E+00
  0.00000000E+00  0.00000000E+00  0.00000000E+00
