FCC Cu                                  
   1.00000000000000     
     7.2600002289000001    0.0000000000000000    0.0000000000000000
     0.0000000000000000    5.1335954666000001    0.0000000000000000
     0.0000000000000000    0.0000000000000000   20.1335949999999997
   Cu
    20
Selective dynamics
Cartesian
0.0 0.0 0.0
0.0 2.5667977330000187 0.0
3.630000114000021 0.0 0.0
3.630000114000021 2.5667977330000187 0.0
1.8150000569999842 1.283398866999991 1.2833988290000176
1.8150000569999842 3.850196600000009 1.2833988290000176
5.445000171000005 1.283398866999991 1.2833988290000176
5.445000171000005 3.850196600000009 1.2833988290000176
-0.0 -0.0 2.5140526169817883
0.0 2.5667977330000187 2.5140526169817883
3.630000114000021 0.0 2.5140526169817883
3.630000114000021 2.5667977330000187 2.5140526169817883
1.8150000569999842 1.283398866999991 3.8306593652103933
1.8150000569999842 3.850196600000009 3.8306593652103933
5.445000171000005 1.283398866999991 3.8306593652103933
5.445000171000005 3.850196600000009 3.8306593652103933
-0.0 0.0 4.9714941696711845
0.0 2.5667977330000187 4.971494169671183
3.630000114000021 0.0 4.971494169671183
3.630000114000021 2.5667977330000187 4.971494169671183
