FCC Cu                                  
   1.00000000000000     
    10.8900003433000006    0.0000000000000000    0.0000000000000000
     0.0000000000000000   10.8900003433000006    0.0000000000000000
     0.0000000000000000    0.0000000000000000   27.7049999237000009
   Cu   H 
   144     2
Selective dynamics
Direct
  0.0000000000000000  0.0000000000000000  0.0000000000000000   F   F   F
  0.0000000000000000  0.3333333332935382  0.0000000000000000   F   F   F
  0.0000000000000000  0.6666666666789069  0.0000000000000000   F   F   F
  0.3333333332935382  0.0000000000000000  0.0000000000000000   F   F   F
  0.3333333332935382  0.3333333332935382  0.0000000000000000   F   F   F
  0.3333333332935382  0.6666666666789069  0.0000000000000000   F   F   F
  0.6666666666789069  0.0000000000000000  0.0000000000000000   F   F   F
  0.6666666666789069  0.3333333332935382  0.0000000000000000   F   F   F
  0.6666666666789069  0.6666666666789069  0.0000000000000000   F   F   F
  0.1666666666467691  0.1666666666467691  0.0000000000000000   F   F   F
  0.1666666666467691  0.4999999999403144  0.0000000000000000   F   F   F
  0.1666666666467691  0.8333333333256832  0.0000000000000000   F   F   F
  0.4999999999403144  0.1666666666467691  0.0000000000000000   F   F   F
  0.4999999999403144  0.4999999999403144  0.0000000000000000   F   F   F
  0.4999999999403144  0.8333333333256832  0.0000000000000000   F   F   F
  0.8333333333256832  0.1666666666467691  0.0000000000000000   F   F   F
  0.8333333333256832  0.4999999999403144  0.0000000000000000   F   F   F
  0.8333333333256832  0.8333333333256832  0.0000000000000000   F   F   F
  0.0000000000000000  0.1666666666467691  0.0655116416169861   F   F   F
  0.0000000000000000  0.4999999999403144  0.0655116416169861   F   F   F
  0.0000000000000000  0.8333333333256832  0.0655116416169861   F   F   F
  0.3333333332935382  0.1666666666467691  0.0655116416169861   F   F   F
  0.3333333332935382  0.4999999999403144  0.0655116416169861   F   F   F
  0.3333333332935382  0.8333333333256832  0.0655116416169861   F   F   F
  0.6666666666789069  0.1666666666467691  0.0655116416169861   F   F   F
  0.6666666666789069  0.4999999999403144  0.0655116416169861   F   F   F
  0.6666666666789069  0.8333333333256832  0.0655116416169861   F   F   F
  0.1666666666467691  0.0000000000000000  0.0655116416169861   F   F   F
  0.1666666666467691  0.3333333332935382  0.0655116416169861   F   F   F
  0.1666666666467691  0.6666666666789069  0.0655116416169861   F   F   F
  0.4999999999403144  0.0000000000000000  0.0655116416169861   F   F   F
  0.4999999999403144  0.3333333332935382  0.0655116416169861   F   F   F
  0.4999999999403144  0.6666666666789069  0.0655116416169861   F   F   F
  0.8333333333256832  0.0000000000000000  0.0655116416169861   F   F   F
  0.8333333333256832  0.3333333332935382  0.0655116416169861   F   F   F
  0.8333333333256832  0.6666666666789069  0.0655116416169861   F   F   F
  0.0000000000000000  0.0000000000000000  0.1311955341119244   F   F   F
  0.0000000000000000  0.3333333332935382  0.1311955341119244   F   F   F
  0.0000000000000000  0.6666666666789069  0.1311955341119244   F   F   F
  0.3333333332935382  0.0000000000000000  0.1311955341119244   F   F   F
  0.3333333332935382  0.3333333332935382  0.1311955341119244   F   F   F
  0.3333333332935382  0.6666666666789069  0.1311955341119244   F   F   F
  0.6666666666789069  0.0000000000000000  0.1311955341119244   F   F   F
  0.6666666666789069  0.3333333332935382  0.1311955341119244   F   F   F
  0.6666666666789069  0.6666666666789069  0.1311955341119244   F   F   F
  0.1666666666467691  0.1666666666467691  0.1311955341119244   F   F   F
  0.1666666666467691  0.4999999999403144  0.1311955341119244   F   F   F
  0.1666666666467691  0.8333333333256832  0.1311955341119244   F   F   F
  0.4999999999403144  0.1666666666467691  0.1311955341119244   F   F   F
  0.4999999999403144  0.4999999999403144  0.1311955341119244   F   F   F
  0.4999999999403144  0.8333333333256832  0.1311955341119244   F   F   F
  0.8333333333256832  0.1666666666467691  0.1311955341119244   F   F   F
  0.8333333333256832  0.4999999999403144  0.1311955341119244   F   F   F
  0.8333333333256832  0.8333333333256832  0.1311955341119244   F   F   F
  0.0000672566282862  0.1667339232750553  0.1940996731713605   T   T   T
  0.0000250222168015  0.4999559882526212  0.1940959682132762   T   T   T
  0.0000939416939641  0.8332946021335412  0.1941171542568838   T   T   T
  0.3332893216058441  0.1666916888635705  0.1940959682132762   T   T   T
  0.3332558364605834  0.4999225031073596  0.1941037982302213   T   T   T
  0.3333341006508082  0.8332971351194876  0.1940313887362288   T   T   T
  0.6666279354867650  0.1667606083407331  0.1941171542568838   T   T   T
  0.6666304684727113  0.5000007672975841  0.1940313887362288   T   T   T
  0.6666919094082178  0.8333585760549940  0.1941424490807332   T   T   T
  0.1666658992894990  0.0000361982061956  0.1940313887362288   T   T   T
  0.1667441634797240  0.3334108301264930  0.1941037982302213   T   T   T
  0.1667106783344629  0.6666416444621054  0.1940959682132762   T   T   T
  0.4999060582463503  0.0000387311921420  0.1941171542568838   T   T   T
  0.4999749777235131  0.3333773449812323  0.1940959682132762   T   T   T
  0.4999327433120283  0.6665994100506208  0.1940996731713605   T   T   T
  0.8333080905963723 -0.0000252427293108  0.1941424490807332   T   T   T
  0.8333695315318788  0.3333325659362682  0.1940313887362288   T   T   T
  0.8333720645178251  0.6665727249849429  0.1941171542568838   T   T   T
 -0.0000382277198973 -0.0000112009151947  0.2568658711689583   T   T   T
  0.0000282994069482  0.3333988459407916  0.2568689774987898   T   T   T
  0.0000554446870000  0.6666112219919068  0.2568522531035405   T   T   T
  0.3333125676837047  0.0000525236321878  0.2568625727121693   T   T   T
  0.3333470136596799  0.3333196529273965  0.2569260225271105   T   T   T
  0.3332678206462849  0.6666383672719588  0.2568689774987898   T   T   T
  0.6666430171817306  0.0000236494971764  0.2569019608827169   T   T   T
  0.6666141430467193  0.3333540989033718  0.2568625727121693   T   T   T
  0.6666778675941020  0.6667048943988044  0.2568658711689583   T   T   T
  0.1667321792940223  0.1666949660537173  0.2568689774987898   T   T   T
  0.1666529862806274  0.5000136803064565  0.2569260225271105   T   T   T
  0.1666874322566029  0.8332808096934955  0.2568625727121693   T   T   T
  0.4999445552533142  0.1667221113337691  0.2568522531035405   T   T   T
  0.4999717005333661  0.4999344872930609  0.2568689774987898   T   T   T
  0.5000382276602119  0.8333445342408782  0.2568658711689583   T   T   T
  0.8333221324104881  0.1666284389268718  0.2568658711689583   T   T   T
  0.8333858569578708  0.4999792343304805  0.2568625727121693   T   T   T
  0.8333569828228595  0.8333096838285068  0.2569019608827169   T   T   T
  0.0000070077104092  0.1666736743571783  0.3198870580123932   T   T   T
 -0.0000428260853117  0.5000364047593026  0.3199004890945932   T   T   T
  0.0000091078233934  0.8332767511351670  0.3198307273609298   T   T   T
  0.3333697381125263  0.1666238405614574  0.3199004890945932   T   T   T
  0.3334496050494939  0.5001162716962704  0.3198364317572462   T   T   T
  0.3333215738643723  0.8332963898829419  0.3198198659142447   T   T   T
  0.6666100844883908  0.1666757744701625  0.3198307273609298   T   T   T
  0.6666297232361656  0.4999882405111487  0.3198198659142447   T   T   T
  0.6666946858846352  0.8333613525314114  0.3198320165047073   T   T   T
  0.1666784260759350  0.0000369434427411  0.3198198659142447   T   T   T
  0.1665503948908132  0.3332170615375825  0.3198364317572462   T   T   T
  0.1666302618277808  0.6667094927642186  0.3199004890945932   T   T   T
  0.4999908921169213  0.0000565821905157  0.3198307273609298   T   T   T
  0.5000428260256258  0.3332969284745501  0.3199004890945932   T   T   T
  0.4999929922299052  0.6666596589684979  0.3198870580123932   T   T   T
  0.8333053141199549 -0.0000280192057287  0.3198320165047073   T   T   T
  0.8333702767684245  0.3333450927227041  0.3198198659142447   T   T   T
  0.8333899155161993  0.6666575588555138  0.3198307273609298   T   T   T
 -0.0000533820152457 -0.0000913067584974  0.3834531820689859   T   T   T
 -0.0001970841607283  0.3332969162338740  0.3834695960517435   T   T   T
 -0.0001557649469848  0.6668224316258915  0.3834621786004321   T   T   T
  0.3333066728875048 -0.0001042398887521  0.3834934887611414   T   T   T
  0.3333548326147003  0.3333118339723761  0.3834169012365292   T   T   T
  0.3333697503532024  0.6668637508396350  0.3834695960517435   T   T   T
  0.6666949950664769 -0.0000283283875700  0.3834344873048116   T   T   T
  0.6667709065676590  0.3333599936995716  0.3834934887611414   T   T   T
  0.6667579734374042  0.6667200486941520  0.3834531820689859   T   T   T
  0.1666302495871047  0.1664695824860408  0.3834695960517435   T   T   T
  0.1666451673256071  0.5000214992614763  0.3834169012365292   T   T   T
  0.1666933270528028  0.8334375732144352  0.3834934887611414   T   T   T
  0.5001557648872987  0.1665109016997842  0.3834621786004321   T   T   T
  0.5001970841010425  0.5000364169999790  0.3834695960517435   T   T   T
  0.5000533819555597  0.8334246400841804  0.3834531820689859   T   T   T
  0.8332420265671859  0.1666132846315233  0.3834531820689859   T   T   T
  0.8332290934369311  0.4999733395342810  0.3834934887611414   T   T   T
  0.8333050049381132  0.8333616617132531  0.3834344873048116   T   T   T
 -0.0000275270204021  0.1666391396263670  0.4461899704891176   T   T   T
  0.0000197871675582  0.5000522694302021  0.4461276379040939   T   T   T
 -0.0001152296209836  0.8332863927869874  0.4462391563732890   T   T   T
  0.3333856027834258  0.1666864538143273  0.4461276379040939   T   T   T
  0.3332920681202804  0.4999587347670565  0.4459957547031850   T   T   T
  0.3334529914499386  0.8333426181164522  0.4462575624240779   T   T   T
  0.6666197261402111  0.1665514370257854  0.4462391563732890   T   T   T
  0.6666759514696760  0.5001196580967145  0.4462575624240779   T   T   T
  0.6666735505596719  0.8333402172064481  0.4461890248120647   T   T   T
  0.1665470084903686 -0.0000092847907686  0.4462575624240779   T   T   T
  0.1667079318200270  0.3333745984667960  0.4459957547031850   T   T   T
  0.1666143971568814  0.6666468795113492  0.4461276379040939   T   T   T
  0.5001152295612981  0.0000469405386960  0.4462391563732890   T   T   T
  0.4999802127727564  0.3332810638036506  0.4461276379040939   T   T   T
  0.5000275269607165  0.6666941936993090  0.4461899704891176   T   T   T
  0.8333264494449182 -0.0000068838807654  0.4461890248120647   T   T   T
  0.8333240485349142  0.3332136751371378  0.4462575624240779   T   T   T
  0.8333802738643790  0.6667818962998910  0.4462391563732890   T   T   T
  0.2499999999701572  0.4166666666169263  0.5280291127985858   T   T   T
  0.2499999999701572  0.4166666666169263  0.5554564819212323   T   T   T
 
  0.00000000E+00  0.00000000E+00  0.00000000E+00
  0.00000000E+00  0.00000000E+00  0.00000000E+00
  0.00000000E+00  0.00000000E+00  0.00000000E+00
  0.00000000E+00  0.00000000E+00  0.00000000E+00
  0.00000000E+00  0.00000000E+00  0.00000000E+00
  0.00000000E+00  0.00000000E+00  0.00000000E+00
  0.00000000E+00  0.00000000E+00  0.00000000E+00
  0.00000000E+00  0.00000000E+00  0.00000000E+00
  0.00000000E+00  0.00000000E+00  0.00000000E+00
  0.00000000E+00  0.00000000E+00  0.00000000E+00
  0.00000000E+00  0.00000000E+00  0.00000000E+00
  0.00000000E+00  0.00000000E+00  0.00000000E+00
  0.00000000E+00  0.00000000E+00  0.00000000E+00
  0.00000000E+00  0.00000000E+00  0.00000000E+00
  0.00000000E+00  0.00000000E+00  0.00000000E+00
  0.00000000E+00  0.00000000E+00  0.00000000E+00
  0.00000000E+00  0.00000000E+00  0.00000000E+00
  0.00000000E+00  0.00000000E+00  0.00000000E+00
  0.00000000E+00  0.00000000E+00  0.00000000E+00
  0.00000000E+00  0.00000000E+00  0.00000000E+00
  0.00000000E+00  0.00000000E+00  0.00000000E+00
  0.00000000E+00  0.00000000E+00  0.00000000E+00
  0.00000000E+00  0.00000000E+00  0.00000000E+00
  0.00000000E+00  0.00000000E+00  0.00000000E+00
  0.00000000E+00  0.00000000E+00  0.00000000E+00
  0.00000000E+00  0.00000000E+00  0.00000000E+00
  0.00000000E+00  0.00000000E+00  0.00000000E+00
  0.00000000E+00  0.00000000E+00  0.00000000E+00
  0.00000000E+00  0.00000000E+00  0.00000000E+00
  0.00000000E+00  0.00000000E+00  0.00000000E+00
  0.00000000E+00  0.00000000E+00  0.00000000E+00
  0.00000000E+00  0.00000000E+00  0.00000000E+00
  0.00000000E+00  0.00000000E+00  0.00000000E+00
  0.00000000E+00  0.00000000E+00  0.00000000E+00
  0.00000000E+00  0.00000000E+00  0.00000000E+00
  0.00000000E+00  0.00000000E+00  0.00000000E+00
  0.00000000E+00  0.00000000E+00  0.00000000E+00
  0.00000000E+00  0.00000000E+00  0.00000000E+00
  0.00000000E+00  0.00000000E+00  0.00000000E+00
  0.00000000E+00  0.00000000E+00  0.00000000E+00
  0.00000000E+00  0.00000000E+00  0.00000000E+00
  0.00000000E+00  0.00000000E+00  0.00000000E+00
  0.00000000E+00  0.00000000E+00  0.00000000E+00
  0.00000000E+00  0.00000000E+00  0.00000000E+00
  0.00000000E+00  0.00000000E+00  0.00000000E+00
  0.00000000E+00  0.00000000E+00  0.00000000E+00
  0.00000000E+00  0.00000000E+00  0.00000000E+00
  0.00000000E+00  0.00000000E+00  0.00000000E+00
  0.00000000E+00  0.00000000E+00  0.00000000E+00
  0.00000000E+00  0.00000000E+00  0.00000000E+00
  0.00000000E+00  0.00000000E+00  0.00000000E+00
  0.00000000E+00  0.00000000E+00  0.00000000E+00
  0.00000000E+00  0.00000000E+00  0.00000000E+00
  0.00000000E+00  0.00000000E+00  0.00000000E+00
  0.00000000E+00  0.00000000E+00  0.00000000E+00
  0.00000000E+00  0.00000000E+00  0.00000000E+00
  0.00000000E+00  0.00000000E+00  0.00000000E+00
  0.00000000E+00  0.00000000E+00  0.00000000E+00
  0.00000000E+00  0.00000000E+00  0.00000000E+00
  0.00000000E+00  0.00000000E+00  0.00000000E+00
  0.00000000E+00  0.00000000E+00  0.00000000E+00
  0.00000000E+00  0.00000000E+00  0.00000000E+00
  0.00000000E+00  0.00000000E+00  0.00000000E+00
  0.00000000E+00  0.00000000E+00  0.00000000E+00
  0.00000000E+00  0.00000000E+00  0.00000000E+00
  0.00000000E+00  0.00000000E+00  0.00000000E+00
  0.00000000E+00  0.00000000E+00  0.00000000E+00
  0.00000000E+00  0.00000000E+00  0.00000000E+00
  0.00000000E+00  0.00000000E+00  0.00000000E+00
  0.00000000E+00  0.00000000E+00  0.00000000E+00
  0.00000000E+00  0.00000000E+00  0.00000000E+00
  0.00000000E+00  0.00000000E+00  0.00000000E+00
  0.00000000E+00  0.00000000E+00  0.00000000E+00
  0.00000000E+00  0.00000000E+00  0.00000000E+00
  0.00000000E+00  0.00000000E+00  0.00000000E+00
  0.00000000E+00  0.00000000E+00  0.00000000E+00
  0.00000000E+00  0.00000000E+00  0.00000000E+00
  0.00000000E+00  0.00000000E+00  0.00000000E+00
  0.00000000E+00  0.00000000E+00  0.00000000E+00
  0.00000000E+00  0.00000000E+00  0.00000000E+00
  0.00000000E+00  0.00000000E+00  0.00000000E+00
  0.00000000E+00  0.00000000E+00  0.00000000E+00
  0.00000000E+00  0.00000000E+00  0.00000000E+00
  0.00000000E+00  0.00000000E+00  0.00000000E+00
  0.00000000E+00  0.00000000E+00  0.00000000E+00
  0.00000000E+00  0.00000000E+00  0.00000000E+00
  0.00000000E+00  0.00000000E+00  0.00000000E+00
  0.00000000E+00  0.00000000E+00  0.00000000E+00
  0.00000000E+00  0.00000000E+00  0.00000000E+00
  0.00000000E+00  0.00000000E+00  0.00000000E+00
  0.00000000E+00  0.00000000E+00  0.00000000E+00
  0.00000000E+00  0.00000000E+00  0.00000000E+00
  0.00000000E+00  0.00000000E+00  0.00000000E+00
  0.00000000E+00  0.00000000E+00  0.00000000E+00
  0.00000000E+00  0.00000000E+00  0.00000000E+00
  0.00000000E+00  0.00000000E+00  0.00000000E+00
  0.00000000E+00  0.00000000E+00  0.00000000E+00
  0.00000000E+00  0.00000000E+00  0.00000000E+00
  0.00000000E+00  0.00000000E+00  0.00000000E+00
  0.00000000E+00  0.00000000E+00  0.00000000E+00
  0.00000000E+00  0.00000000E+00  0.00000000E+00
  0.00000000E+00  0.00000000E+00  0.00000000E+00
  0.00000000E+00  0.00000000E+00  0.00000000E+00
  0.00000000E+00  0.00000000E+00  0.00000000E+00
  0.00000000E+00  0.00000000E+00  0.00000000E+00
  0.00000000E+00  0.00000000E+00  0.00000000E+00
  0.00000000E+00  0.00000000E+00  0.00000000E+00
  0.00000000E+00  0.00000000E+00  0.00000000E+00
  0.00000000E+00  0.00000000E+00  0.00000000E+00
  0.00000000E+00  0.00000000E+00  0.00000000E+00
  0.00000000E+00  0.00000000E+00  0.00000000E+00
  0.00000000E+00  0.00000000E+00  0.00000000E+00
  0.00000000E+00  0.00000000E+00  0.00000000E+00
  0.00000000E+00  0.00000000E+00  0.00000000E+00
  0.00000000E+00  0.00000000E+00  0.00000000E+00
  0.00000000E+00  0.00000000E+00  0.00000000E+00
  0.00000000E+00  0.00000000E+00  0.00000000E+00
  0.00000000E+00  0.00000000E+00  0.00000000E+00
  0.00000000E+00  0.00000000E+00  0.00000000E+00
  0.00000000E+00  0.00000000E+00  0.00000000E+00
  0.00000000E+00  0.00000000E+00  0.00000000E+00
  0.00000000E+00  0.00000000E+00  0.00000000E+00
  0.00000000E+00  0.00000000E+00  0.00000000E+00
  0.00000000E+00  0.00000000E+00  0.00000000E+00
  0.00000000E+00  0.00000000E+00  0.00000000E+00
  0.00000000E+00  0.00000000E+00  0.00000000E+00
  0.00000000E+00  0.00000000E+00  0.00000000E+00
  0.00000000E+00  0.00000000E+00  0.00000000E+00
  0.00000000E+00  0.00000000E+00  0.00000000E+00
  0.00000000E+00  0.00000000E+00  0.00000000E+00
  0.00000000E+00  0.00000000E+00  0.00000000E+00
  0.00000000E+00  0.00000000E+00  0.00000000E+00
  0.00000000E+00  0.00000000E+00  0.00000000E+00
  0.00000000E+00  0.00000000E+00  0.00000000E+00
  0.00000000E+00  0.00000000E+00  0.00000000E+00
  0.00000000E+00  0.00000000E+00  0.00000000E+00
  0.00000000E+00  0.00000000E+00  0.00000000E+00
  0.00000000E+00  0.00000000E+00  0.00000000E+00
  0.00000000E+00  0.00000000E+00  0.00000000E+00
  0.00000000E+00  0.00000000E+00  0.00000000E+00
  0.00000000E+00  0.00000000E+00  0.00000000E+00
  0.00000000E+00  0.00000000E+00  0.00000000E+00
  0.00000000E+00  0.00000000E+00  0.00000000E+00
  0.00000000E+00  0.00000000E+00  0.00000000E+00
  0.00000000E+00  0.00000000E+00  0.00000000E+00
  0.00000000E+00  0.00000000E+00  0.00000000E+00
