FCC Cu                                  
   1.00000000000000     
     5.1335954666000001    0.0000000000000000    0.0000000000000000
     2.5667977333000001    4.4458240868000001    0.0000000000000000
     0.0000000000000000    0.0000000000000000   29.6704711914000008
   Cu
    32
Selective dynamics
Direct
  0.0000000000000000  0.0000000000000000  0.0000000000000000   F   F   F
  0.0000000001131610  0.4999999999100311  0.0000000000000000   F   F   F
  0.4999999999415650  0.0000000000000000  0.0000000000000000   F   F   F
  0.5000000000547260  0.4999999999100311  0.0000000000000000   F   F   F
  0.1666666667498404  0.1666666666366794  0.0706352640805861   F   F   F
  0.1666666668630015  0.6666666665467034  0.0706352640805861   F   F   F
  0.6666666666913983  0.1666666666366794  0.0706352640805861   F   F   F
  0.6666666668045664  0.6666666665467034  0.0706352640805861   F   F   F
  0.3333333333048856  0.3333333332733517  0.1384702131071302   T   T   T
  0.3333333334180466  0.8333333331833828  0.1384702131071302   T   T   T
  0.8333333332464434  0.3333333332733517  0.1384702131071302   T   T   T
  0.8333333333596116  0.8333333331833828  0.1384702131071302   T   T   T
 -0.0000000000000000 -0.0000000000000000  0.2066742786076075   T   T   T
  0.0000000001131610  0.4999999999100311  0.2066742786076075   T   T   T
  0.4999999999415650 -0.0000000000000000  0.2066742786076075   T   T   T
  0.5000000000547260  0.4999999999100311  0.2066742786076075   T   T   T
  0.1666666667498404  0.1666666666366794  0.2748885878747131   T   T   T
  0.1666666668630015  0.6666666665467034  0.2748885878747131   T   T   T
  0.6666666666913983  0.1666666666366794  0.2748885878747131   T   T   T
  0.6666666668045664  0.6666666665467034  0.2748885878747131   T   T   T
  0.3333333333048856  0.3333333332733517  0.3431991713871118   T   T   T
  0.3333333334180466  0.8333333331833828  0.3431991713871118   T   T   T
  0.8333333332464434  0.3333333332733517  0.3431991713871118   T   T   T
  0.8333333333596116  0.8333333331833828  0.3431991713871118   T   T   T
  0.0000000000000000  0.0000000000000000  0.4110582787079681   T   T   T
  0.0000000001131610  0.4999999999100311  0.4110582787079681   T   T   T
  0.4999999999415650  0.0000000000000000  0.4110582787079681   T   T   T
  0.5000000000547260  0.4999999999100311  0.4110582787079681   T   T   T
  0.1666666667498404  0.1666666666366794  0.4805446182734149   T   T   T
  0.1666666668630015  0.6666666665467034  0.4805446182734149   T   T   T
  0.6666666666913983  0.1666666666366794  0.4805446182734149   T   T   T
  0.6666666668045664  0.6666666665467034  0.4805446182734149   T   T   T
 
  0.00000000E+00  0.00000000E+00  0.00000000E+00
  0.00000000E+00  0.00000000E+00  0.00000000E+00
  0.00000000E+00  0.00000000E+00  0.00000000E+00
  0.00000000E+00  0.00000000E+00  0.00000000E+00
  0.00000000E+00  0.00000000E+00  0.00000000E+00
  0.00000000E+00  0.00000000E+00  0.00000000E+00
  0.00000000E+00  0.00000000E+00  0.00000000E+00
  0.00000000E+00  0.00000000E+00  0.00000000E+00
  0.00000000E+00  0.00000000E+00  0.00000000E+00
  0.00000000E+00  0.00000000E+00  0.00000000E+00
  0.00000000E+00  0.00000000E+00  0.00000000E+00
  0.00000000E+00  0.00000000E+00  0.00000000E+00
  0.00000000E+00  0.00000000E+00  0.00000000E+00
  0.00000000E+00  0.00000000E+00  0.00000000E+00
  0.00000000E+00  0.00000000E+00  0.00000000E+00
  0.00000000E+00  0.00000000E+00  0.00000000E+00
  0.00000000E+00  0.00000000E+00  0.00000000E+00
  0.00000000E+00  0.00000000E+00  0.00000000E+00
  0.00000000E+00  0.00000000E+00  0.00000000E+00
  0.00000000E+00  0.00000000E+00  0.00000000E+00
  0.00000000E+00  0.00000000E+00  0.00000000E+00
  0.00000000E+00  0.00000000E+00  0.00000000E+00
  0.00000000E+00  0.00000000E+00  0.00000000E+00
  0.00000000E+00  0.00000000E+00  0.00000000E+00
  0.00000000E+00  0.00000000E+00  0.00000000E+00
  0.00000000E+00  0.00000000E+00  0.00000000E+00
  0.00000000E+00  0.00000000E+00  0.00000000E+00
  0.00000000E+00  0.00000000E+00  0.00000000E+00
  0.00000000E+00  0.00000000E+00  0.00000000E+00
  0.00000000E+00  0.00000000E+00  0.00000000E+00
  0.00000000E+00  0.00000000E+00  0.00000000E+00
  0.00000000E+00  0.00000000E+00  0.00000000E+00
