FCC Cu                                  
1.0
        5.1335954666         0.0000000000         0.0000000000
        2.5667977333         4.4458240868         0.0000000000
        0.0000000000         0.0000000000        29.6704711914
   Cu
   32
Cartesian
     0.000000000         0.000000000         0.000000000
     1.283398866         2.222912043         0.000000000
     2.566797733         0.000000000         0.000000000
     3.850196600         2.222912043         0.000000000
     1.283398867         0.740970681         2.095781568
     2.566797734         2.963882724         2.095781568
     3.850196600         0.740970681         2.095781568
     5.133595467         2.963882724         2.095781568
     2.566797733         1.481941362         4.108476469
     3.850196600         3.704853405         4.108476469
     5.133595466         1.481941362         4.108476469
     6.416994333         3.704853405         4.108476469
     0.000000000         0.000000000         6.132123229
     1.283398866         2.222912043         6.132123229
     2.566797733         0.000000000         6.132123229
     3.850196600         2.222912043         6.132123229
     1.283398867         0.740970681         8.156073927
     2.566797734         2.963882724         8.156073927
     3.850196600         0.740970681         8.156073927
     5.133595467         2.963882724         8.156073927
     2.566797733         1.481941362        10.182881128
     3.850196600         3.704853405        10.182881128
     5.133595466         1.481941362        10.182881128
     6.416994333         3.704853405        10.182881128
     0.000000000         0.000000000        12.196292816
     1.283398866         2.222912043        12.196292816
     2.566797733         0.000000000        12.196292816
     3.850196600         2.222912043        12.196292816
     1.283398867         0.740970681        14.257985253
     2.566797734         2.963882724        14.257985253
     3.850196600         0.740970681        14.257985253
     5.133595467         2.963882724        14.257985253
