FCC Cu                                  
   1.00000000000000     
     7.2600002289000001    0.0000000000000000    0.0000000000000000
     0.0000000000000000    5.1335954666000001    0.0000000000000000
     0.0000000000000000    0.0000000000000000   23.9837913512999990
   Cu   H 
    32     2
Selective dynamics
Direct
  0.0000000000000000  0.0000000000000000  0.0000000000000000   F   F   F
  0.0000000000000000  0.4999999999415579  0.0000000000000000   F   F   F
  0.4999999999380194  0.0000000000000000  0.0000000000000000   F   F   F
  0.4999999999380194  0.4999999999415579  0.0000000000000000   F   F   F
  0.2499999999690061  0.2500000000681766  0.0535110904777980   F   F   F
  0.2499999999690061  0.7500000000097415  0.0535110904777980   F   F   F
  0.7499999999070255  0.2500000000681766  0.0535110904777980   F   F   F
  0.7499999999070255  0.7500000000097415  0.0535110904777980   F   F   F
  0.0000000000000000  0.0000000000000000  0.1054137052072122   F   F   F
  0.0000000000000000  0.4999999999415579  0.1054137052072122   F   F   F
  0.4999999999380194  0.0000000000000000  0.1054137052072122   F   F   F
  0.4999999999380194  0.4999999999415579  0.1054137052072122   F   F   F
  0.2498336164313161  0.2502804430267294  0.1569975130043211   T   T   T
  0.2498336164313161  0.7497195570511889  0.1569975130043211   T   T   T
  0.7501663834447159  0.2502804430267294  0.1569975130043211   T   T   T
  0.7501663834447159  0.7497195570511889  0.1569975130043211   T   T   T
 -0.0000000000000000  0.0000000000000000  0.2082401326709319   T   T   T
 -0.0000000000000000  0.4999999999415579  0.2083039087283766   T   T   T
  0.4999999999380194  0.0000000000000000  0.2085534980935158   T   T   T
  0.4999999999380194  0.4999999999415579  0.2084641572130524   T   T   T
  0.2500822329407574  0.2503394790139131  0.2590379346331520   T   T   T
  0.2500822329407574  0.7496605210640053  0.2590379346331520   T   T   T
  0.7499177669352745  0.2503394790139130  0.2590379346331520   T   T   T
  0.7499177669352745  0.7496605210640053  0.2590379346331520   T   T   T
 -0.0000000000000000  0.0000000000000000  0.3136344424305999   T   T   T
 -0.0000000000000000  0.4999999999415579  0.3136234941746798   T   T   T
  0.4999999999380194  0.0000000000000000  0.3136975274079439   T   T   T
  0.4999999999380194  0.4999999999415579  0.3136795417424044   T   T   T
  0.2505410671729920  0.2496393852522743  0.3611460619753291   T   T   T
  0.2505410671729920  0.7503606148256439  0.3611460619753291   T   T   T
  0.7494589327030392  0.2496393852522743  0.3611460619753291   T   T   T
  0.7494589327030392  0.7503606148256439  0.3611460619753291   T   T   T
  0.9999999999449045  0.5000000000389591  0.4425259489483409   T   T   T
  0.9999999999449045  0.5000000000389591  0.4742091000016927   T   T   T
 
  0.00000000E+00  0.00000000E+00  0.00000000E+00
  0.00000000E+00  0.00000000E+00  0.00000000E+00
  0.00000000E+00  0.00000000E+00  0.00000000E+00
  0.00000000E+00  0.00000000E+00  0.00000000E+00
  0.00000000E+00  0.00000000E+00  0.00000000E+00
  0.00000000E+00  0.00000000E+00  0.00000000E+00
  0.00000000E+00  0.00000000E+00  0.00000000E+00
  0.00000000E+00  0.00000000E+00  0.00000000E+00
  0.00000000E+00  0.00000000E+00  0.00000000E+00
  0.00000000E+00  0.00000000E+00  0.00000000E+00
  0.00000000E+00  0.00000000E+00  0.00000000E+00
  0.00000000E+00  0.00000000E+00  0.00000000E+00
  0.00000000E+00  0.00000000E+00  0.00000000E+00
  0.00000000E+00  0.00000000E+00  0.00000000E+00
  0.00000000E+00  0.00000000E+00  0.00000000E+00
  0.00000000E+00  0.00000000E+00  0.00000000E+00
  0.00000000E+00  0.00000000E+00  0.00000000E+00
  0.00000000E+00  0.00000000E+00  0.00000000E+00
  0.00000000E+00  0.00000000E+00  0.00000000E+00
  0.00000000E+00  0.00000000E+00  0.00000000E+00
  0.00000000E+00  0.00000000E+00  0.00000000E+00
  0.00000000E+00  0.00000000E+00  0.00000000E+00
  0.00000000E+00  0.00000000E+00  0.00000000E+00
  0.00000000E+00  0.00000000E+00  0.00000000E+00
  0.00000000E+00  0.00000000E+00  0.00000000E+00
  0.00000000E+00  0.00000000E+00  0.00000000E+00
  0.00000000E+00  0.00000000E+00  0.00000000E+00
  0.00000000E+00  0.00000000E+00  0.00000000E+00
  0.00000000E+00  0.00000000E+00  0.00000000E+00
  0.00000000E+00  0.00000000E+00  0.00000000E+00
  0.00000000E+00  0.00000000E+00  0.00000000E+00
  0.00000000E+00  0.00000000E+00  0.00000000E+00
  0.00000000E+00  0.00000000E+00  0.00000000E+00
  0.00000000E+00  0.00000000E+00  0.00000000E+00
