FCC Cu                                  
   1.00000000000000     
     2.5667977333000001    0.0000000000000000    0.0000000000000000
     1.2833988667000000    2.2229120434000000    0.0000000000000000
     0.0000000000000000    0.0000000000000000   27.5746892300000006
   Cu
     7
Selective dynamics
Direct
  0.0000000000000000  0.0000000000000000  0.0000000000000000   F   F   F
  0.3333333334931865  0.3333333332733517  0.0760038135160528   F   F   F
  0.6666666665967824  0.6666666665467034  0.1498509843896362   T   T   T
  0.0000000000000000 -0.0000000000000000  0.2233981836596894   T   T   T
  0.3333333334931865  0.3333333332733517  0.2970178230198508   T   T   T
  0.6666666665967824  0.6666666665467034  0.3711134533795294   T   T   T
  0.0000000000000000 -0.0000000000000000  0.4436082602607612   T   T   T
 
  0.00000000E+00  0.00000000E+00  0.00000000E+00
  0.00000000E+00  0.00000000E+00  0.00000000E+00
  0.00000000E+00  0.00000000E+00  0.00000000E+00
  0.00000000E+00  0.00000000E+00  0.00000000E+00
  0.00000000E+00  0.00000000E+00  0.00000000E+00
  0.00000000E+00  0.00000000E+00  0.00000000E+00
  0.00000000E+00  0.00000000E+00  0.00000000E+00
