FCC Cu                                  
1.0
        2.5667977333         0.0000000000         0.0000000000
        1.2833988667         2.2229120434         0.0000000000
        0.0000000000         0.0000000000        27.5746898651
   Cu
    7
Cartesian
     0.000000000         0.000000000         0.000000000
     1.283398867         0.740970681         2.095781586
     2.566797733         1.481941362         4.132094421
     0.000000000         0.000000000         6.160135631
     1.283398867         0.740970681         8.190174354
     2.566797733         1.481941362        10.233338382
     0.000000000         0.000000000        12.232360198
