FCC Cu                                  
   1.00000000000000     
     2.5667977333000001    0.0000000000000000    0.0000000000000000
     1.2833988667000000    2.2229120434000000    0.0000000000000000
     0.0000000000000000    0.0000000000000000   29.6704711914000008
   Cu   H 
     8     2
Direct
  0.0009424866067623 -0.0018849732135246 -0.0000761123255291
  0.3345638443898244  0.3308723114800757  0.0672647903026063
  0.6694041836249468  0.6611916324903739  0.1354499056087641
  0.0064992312721937 -0.0129984625443873  0.2040385093377509
  0.3431127882408402  0.3137744237780440  0.2719127602835663
  0.6793872266893205  0.6412255463616270  0.3403265350167521
  0.0171310354333646 -0.0342620708667291  0.4082890994540918
  0.3567499621335988  0.2865000759925273  0.4755433534438135
  0.5932669902253277  0.8134660197830919  0.5471418859864489
  0.5469578772977257  0.9060842456290594  0.5718142345288693
 
  0.00000000E+00  0.00000000E+00  0.00000000E+00
  0.00000000E+00  0.00000000E+00  0.00000000E+00
  0.00000000E+00  0.00000000E+00  0.00000000E+00
  0.00000000E+00  0.00000000E+00  0.00000000E+00
  0.00000000E+00  0.00000000E+00  0.00000000E+00
  0.00000000E+00  0.00000000E+00  0.00000000E+00
  0.00000000E+00  0.00000000E+00  0.00000000E+00
  0.00000000E+00  0.00000000E+00  0.00000000E+00
  0.00000000E+00  0.00000000E+00  0.00000000E+00
  0.00000000E+00  0.00000000E+00  0.00000000E+00
