FCC Cu                                  
   1.00000000000000     
     3.6300001144000000    0.0000000000000000    0.0000000000000000
     0.0000000000000000    2.5667977333000001    0.0000000000000000
     0.0000000000000000    0.0000000000000000   23.9837913512999990
   Cu   H 
     8     2
Direct
  0.0000000000000000  0.0006129213296180  0.0011018750969839
  0.4999999999449045  0.5006502532811458  0.0484615392796682
  0.0000000000000000  0.0013571582258825  0.1025363954484701
  0.4999999999449045  0.5029810776682685  0.1549862371691691
  0.0000000000000000  0.0055797137189696  0.2063143990488681
  0.4999999999449045  0.5116029631466267  0.2598900711668301
  0.0000000000000000  0.0219399066715626  0.3127917513150965
  0.4999999999449045  0.5280467949168898  0.3612659356514710
  0.4999999998347207  0.4633743001718666  0.4437798177409690
  0.4999999998347207  0.7544894208743262  0.4342016269537846
 
  0.00000000E+00  0.00000000E+00  0.00000000E+00
  0.00000000E+00  0.00000000E+00  0.00000000E+00
  0.00000000E+00  0.00000000E+00  0.00000000E+00
  0.00000000E+00  0.00000000E+00  0.00000000E+00
  0.00000000E+00  0.00000000E+00  0.00000000E+00
  0.00000000E+00  0.00000000E+00  0.00000000E+00
  0.00000000E+00  0.00000000E+00  0.00000000E+00
  0.00000000E+00  0.00000000E+00  0.00000000E+00
  0.00000000E+00  0.00000000E+00  0.00000000E+00
  0.00000000E+00  0.00000000E+00  0.00000000E+00
