FCC Cu
1.00000000000000
10.8900003433000006    0.0000000000000000    0.0000000000000000
0.0000000000000000   10.8900003433000006    0.0000000000000000
0.0000000000000000    0.0000000000000000   27.7049999237000009
Cu H
144 2
Selective dynamics
Cartesian
0.0     0.0     0.0     F     F     F
0.0     3.6300001139999645     0.0     F     F     F
0.0     7.260000228999964     0.0     F     F     F
3.6300001139999645     0.0     0.0     F     F     F
3.6300001139999645     3.6300001139999645     0.0     F     F     F
3.6300001139999645     7.260000228999964     0.0     F     F     F
7.260000228999964     0.0     0.0     F     F     F
7.260000228999964     3.6300001139999645     0.0     F     F     F
7.260000228999964     7.260000228999964     0.0     F     F     F
1.8150000569999822     1.8150000569999822     0.0     F     F     F
1.8150000569999822     5.445000171000024     0.0     F     F     F
1.8150000569999822     9.075000286000023     0.0     F     F     F
5.445000171000024     1.8150000569999822     0.0     F     F     F
5.445000171000024     5.445000171000024     0.0     F     F     F
5.445000171000024     9.075000286000023     0.0     F     F     F
9.075000286000023     1.8150000569999822     0.0     F     F     F
9.075000286000023     5.445000171000024     0.0     F     F     F
9.075000286000023     9.075000286000023     0.0     F     F     F
0.0     1.8150000569999822     1.8150000260000616     F     F     F
0.0     5.445000171000024     1.8150000260000616     F     F     F
0.0     9.075000286000023     1.8150000260000616     F     F     F
3.6300001139999645     1.8150000569999822     1.8150000260000616     F     F     F
3.6300001139999645     5.445000171000024     1.8150000260000616     F     F     F
3.6300001139999645     9.075000286000023     1.8150000260000616     F     F     F
7.260000228999964     1.8150000569999822     1.8150000260000616     F     F     F
7.260000228999964     5.445000171000024     1.8150000260000616     F     F     F
7.260000228999964     9.075000286000023     1.8150000260000616     F     F     F
1.8150000569999822     0.0     1.8150000260000616     F     F     F
1.8150000569999822     3.6300001139999645     1.8150000260000616     F     F     F
1.8150000569999822     7.260000228999964     1.8150000260000616     F     F     F
5.445000171000024     0.0     1.8150000260000616     F     F     F
5.445000171000024     3.6300001139999645     1.8150000260000616     F     F     F
5.445000171000024     7.260000228999964     1.8150000260000616     F     F     F
9.075000286000023     0.0     1.8150000260000616     F     F     F
9.075000286000023     3.6300001139999645     1.8150000260000616     F     F     F
9.075000286000023     7.260000228999964     1.8150000260000616     F     F     F
0.0     0.0     3.634772262560682     F     F     F
-0.0     3.6300001139999645     3.634772262560682     F     F     F
0.0     7.260000228999964     3.634772262560682     F     F     F
3.6300001139999645     -0.0     3.634772262560682     F     F     F
3.6300001139999645     3.6300001139999645     3.634772262560682     F     F     F
3.6300001139999645     7.260000228999964     3.634772262560682     F     F     F
7.260000228999964     0.0     3.634772262560682     F     F     F
7.260000228999964     3.6300001139999645     3.634772262560682     F     F     F
7.260000228999964     7.260000228999964     3.634772262560682     F     F     F
1.8150000569999822     1.8150000569999822     3.634772262560682     F     F     F
1.8150000569999822     5.445000171000024     3.634772262560682     F     F     F
1.8150000569999822     9.075000286000023     3.634772262560682     F     F     F
5.445000171000024     1.8150000569999822     3.634772262560682     F     F     F
5.445000171000024     5.445000171000024     3.634772262560682     F     F     F
5.445000171000024     9.075000286000023     3.634772262560682     F     F     F
9.075000286000023     1.8150000569999822     3.634772262560682     F     F     F
9.075000286000023     5.445000171000024     3.634772262560682     F     F     F
9.075000286000023     9.075000286000023     3.634772262560682     F     F     F
-0.0     1.8150000569999822     5.4359092876684745     T     T     T
-0.0     5.445000171000024     5.4359092876684745     T     T     T
-0.0     9.075000286000023     5.4359092876684745     T     T     T
3.6300001139999645     1.8150000569999822     5.4359092876684745     T     T     T
3.6300001139999645     5.445000171000024     5.4359092876684745     T     T     T
3.6300001139999645     9.075000286000023     5.4359092876684745     T     T     T
7.260000228999964     1.8150000569999822     5.4359092876684745     T     T     T
7.260000228999964     5.445000171000024     5.4359092876684745     T     T     T
7.260000228999964     9.075000286000023     5.4359092876684745     T     T     T
1.8150000569999822     0.0     5.4359092876684745     T     T     T
1.8150000569999822     3.6300001139999645     5.4359092876684745     T     T     T
1.8150000569999822     7.260000228999964     5.4359092876684745     T     T     T
5.445000171000024     -0.0     5.4359092876684745     T     T     T
5.445000171000024     3.6300001139999645     5.4359092876684745     T     T     T
5.445000171000024     7.260000228999964     5.4359092876684745     T     T     T
9.075000286000023     -0.0     5.4359092876684745     T     T     T
9.075000286000023     3.6300001139999645     5.4359092876684745     T     T     T
9.075000286000023     7.260000228999964     5.4359092876684745     T     T     T
0.0     0.0     7.1683528225833335     T     T     T
-0.0     3.6300001139999645     7.1683528225833335     T     T     T
-0.0     7.260000228999964     7.1683528225833335     T     T     T
3.6300001139999645     0.0     7.1683528225833335     T     T     T
3.6300001139999645     3.6300001139999645     7.1683528225833335     T     T     T
3.6300001139999645     7.260000228999964     7.1683528225833335     T     T     T
7.260000228999964     -0.0     7.1683528225833335     T     T     T
7.260000228999964     3.6300001139999645     7.1683528225833335     T     T     T
7.260000228999964     7.260000228999964     7.1683528225833335     T     T     T
1.8150000569999822     1.8150000569999822     7.1683528225833335     T     T     T
1.8150000569999822     5.445000171000024     7.1683528225833335     T     T     T
1.8150000569999822     9.075000286000023     7.1683528225833335     T     T     T
5.445000171000024     1.8150000569999822     7.1683528225833335     T     T     T
5.445000171000024     5.445000171000024     7.1683528225833335     T     T     T
5.445000171000024     9.075000286000023     7.1683528225833335     T     T     T
9.075000286000023     1.8150000569999822     7.1683528225833335     T     T     T
9.075000286000023     5.445000171000024     7.1683528225833335     T     T     T
9.075000286000023     9.075000286000023     7.1683528225833335     T     T     T
0.0     1.8150000569999822     8.898833331906218     T     T     T
0.0     5.445000171000024     8.898833331906218     T     T     T
0.0     9.075000286000023     8.898833331906218     T     T     T
3.6300001139999645     1.8150000569999822     8.898833331906218     T     T     T
3.6300001139999645     5.445000171000024     8.898833331906218     T     T     T
3.6300001139999645     9.075000286000023     8.898833331906218     T     T     T
7.260000228999964     1.8150000569999822     8.898833331906218     T     T     T
7.260000228999964     5.445000171000024     8.898833331906218     T     T     T
7.260000228999964     9.075000286000023     8.898833331906218     T     T     T
1.8150000569999822     -0.0     8.898833331906218     T     T     T
1.8150000569999822     3.6300001139999645     8.898833331906218     T     T     T
1.8150000569999822     7.260000228999964     8.898833331906218     T     T     T
5.445000171000024     -0.0     8.898833331906218     T     T     T
5.445000171000024     3.6300001139999645     8.898833331906218     T     T     T
5.445000171000024     7.260000228999964     8.898833331906218     T     T     T
9.075000286000023     0.0     8.898833331906218     T     T     T
9.075000286000023     3.6300001139999645     8.898833331906218     T     T     T
9.075000286000023     7.260000228999964     8.898833331906218     T     T     T
-0.0     0.0     10.65987873089642     T     T     T
-0.0     3.6300001139999645     10.65987873089642     T     T     T
-0.0     7.260000228999964     10.65987873089642     T     T     T
3.6300001139999645     -0.0     10.65987873089642     T     T     T
3.6300001139999645     3.6300001139999645     10.65987873089642     T     T     T
3.6300001139999645     7.260000228999964     10.65987873089642     T     T     T
7.260000228999964     0.0     10.65987873089642     T     T     T
7.260000228999964     3.6300001139999645     10.65987873089642     T     T     T
7.260000228999964     7.260000228999964     10.65987873089642     T     T     T
1.8150000569999822     1.8150000569999822     10.65987873089642     T     T     T
1.8150000569999822     5.445000171000024     10.65987873089642     T     T     T
1.8150000569999822     9.075000286000023     10.65987873089642     T     T     T
5.445000171000024     1.8150000569999822     10.65987873089642     T     T     T
5.445000171000024     5.445000171000024     10.65987873089642     T     T     T
5.445000171000024     9.075000286000023     10.65987873089642     T     T     T
9.075000286000023     1.8150000569999822     10.65987873089642     T     T     T
9.075000286000023     5.445000171000024     10.65987873089642     T     T     T
9.075000286000023     9.075000286000023     10.65987873089642     T     T     T
0.0     1.8150000569999822     12.394239743006775     T     T     T
0.0     5.445000171000024     12.394239743006775     T     T     T
0.0     9.075000286000023     12.394239743006775     T     T     T
3.6300001139999645     1.8150000569999822     12.394239743006775     T     T     T
3.6300001139999645     5.445000171000024     12.394239743006775     T     T     T
3.6300001139999645     9.075000286000023     12.394239743006775     T     T     T
7.260000228999964     1.8150000569999822     12.394239743006775     T     T     T
7.260000228999964     5.445000171000024     12.394239743006775     T     T     T
7.260000228999964     9.075000286000023     12.394239743006775     T     T     T
1.8150000569999822     0.0     12.394239743006775     T     T     T
1.8150000569999822     3.6300001139999645     12.394239743006775     T     T     T
1.8150000569999822     7.260000228999964     12.394239743006775     T     T     T
5.445000171000024     0.0     12.394239743006775     T     T     T
5.445000171000024     3.6300001139999645     12.394239743006775     T     T     T
5.445000171000024     7.260000228999964     12.394239743006775     T     T     T
9.075000286000023     -0.0     12.394239743006775     T     T     T
9.075000286000023     3.6300001139999645     12.394239743006775     T     T     T
9.075000286000023     7.260000228999964     12.394239743006775     T     T     T
3.6300001139999645 5.445000171000024 13.894239743006775    T   T   T
3.6300001139999645 5.445000171000024 14.640239743006775    T   T   T
