FCC Cu                                  
   1.00000000000000     
     3.6300001144000000    0.0000000000000000    0.0000000000000000
     0.0000000000000000    2.5667977333000001    0.0000000000000000
     0.0000000000000000    0.0000000000000000   23.9837913512999990
   Cu   H 
     8     2
Direct
  0.0000000000000000  0.0057599220022298  0.0024671308917091
  0.4999999999449045  0.5087256824882089  0.0497403066250409
  0.0000000000000000  0.0167935528501924  0.1039109714846892
  0.4999999999449045  0.5261533519142014  0.1566059375815488
  0.0000000000000000  0.0332349985037821  0.2081379745491982
  0.4999999999449045  0.5385843710681457  0.2618100205546365
  0.0000000000000000  0.0396752123303479  0.3150164314204465
  0.4999999999449045  0.5389564268292307  0.3634061761349031
  0.4999999998347207  0.3494038915028796  0.4402859824526605
  0.4999999998347207  0.6482222235534121  0.4459428068947603
 
  0.00000000E+00  0.00000000E+00  0.00000000E+00
  0.00000000E+00  0.00000000E+00  0.00000000E+00
  0.00000000E+00  0.00000000E+00  0.00000000E+00
  0.00000000E+00  0.00000000E+00  0.00000000E+00
  0.00000000E+00  0.00000000E+00  0.00000000E+00
  0.00000000E+00  0.00000000E+00  0.00000000E+00
  0.00000000E+00  0.00000000E+00  0.00000000E+00
  0.00000000E+00  0.00000000E+00  0.00000000E+00
  0.00000000E+00  0.00000000E+00  0.00000000E+00
  0.00000000E+00  0.00000000E+00  0.00000000E+00
