FCC Cu                                  
1.0
        2.5667977333         0.0000000000         0.0000000000
        1.2833988667         2.2229120434         0.0000000000
        0.0000000000         0.0000000000        25.4789085388
   Cu
    6
Cartesian
     0.000000000         0.000000000         0.000000000
     1.283398867         0.740970681         2.095781608
     2.566797733         1.481941362         4.119434901
     0.000000000         0.000000000         6.159455743
     1.283398867         0.740970681         8.191498431
     2.566797733         1.481941362        10.200080251
