FCC Cu                                  
   1.00000000000000     
     7.2600002289000001    0.0000000000000000    0.0000000000000000
     0.0000000000000000    7.2600002289000001    0.0000000000000000
     0.0000000000000000    0.0000000000000000   25.8900000000000006
   Cu
    56
Selective dynamics
Direct
  0.0000000000000000  0.0000000000000000  0.0000000000000000   F   F   F
  0.0000000000000000  0.4999999999380194  0.0000000000000000   F   F   F
  0.4999999999380194  0.0000000000000000  0.0000000000000000   F   F   F
  0.4999999999380194  0.4999999999380194  0.0000000000000000   F   F   F
  0.2499999999690061  0.2499999999690061  0.0000000000000000   F   F   F
  0.2499999999690061  0.7499999999070255  0.0000000000000000   F   F   F
  0.7499999999070255  0.2499999999690061  0.0000000000000000   F   F   F
  0.7499999999070255  0.7499999999070255  0.0000000000000000   F   F   F
  0.0000000000000000  0.2499999999690061  0.0701042883738907   F   F   F
  0.0000000000000000  0.7499999999070255  0.0701042883738907   F   F   F
  0.4999999999380194  0.2499999999690061  0.0701042883738907   F   F   F
  0.4999999999380194  0.7499999999070255  0.0701042883738907   F   F   F
  0.2499999999690061  0.0000000000000000  0.0701042883738907   F   F   F
  0.2499999999690061  0.4999999999380194  0.0701042883738907   F   F   F
  0.7499999999070255  0.0000000000000000  0.0701042883738907   F   F   F
  0.7499999999070255  0.4999999999380194  0.0701042883738907   F   F   F
  0.0000000000000000  0.0000000000000000  0.1406738298752914   T   T   T
 -0.0000000000000000  0.4999999999380194  0.1406738298752914   T   T   T
  0.4999999999380194  0.0000000000000000  0.1406738298752914   T   T   T
  0.4999999999380194  0.4999999999380194  0.1406738298752914   T   T   T
  0.2499999999690061  0.2499999999690061  0.1406738298752914   T   T   T
  0.2499999999690061  0.7499999999070255  0.1406738298752914   T   T   T
  0.7499999999070255  0.2499999999690061  0.1406738298752914   T   T   T
  0.7499999999070255  0.7499999999070255  0.1406738298752914   T   T   T
  0.0000000000000000  0.2499999999690061  0.2083659062882889   T   T   T
  0.0000000000000000  0.7499999999070255  0.2083659062882889   T   T   T
  0.4999999999380194  0.2499999999690061  0.2083659062882889   T   T   T
  0.4999999999380194  0.7499999999070255  0.2083659062882889   T   T   T
  0.2499999999690061 -0.0000000000000000  0.2083659062882889   T   T   T
  0.2499999999690061  0.4999999999380194  0.2083659062882889   T   T   T
  0.7499999999070255  0.0000000000000000  0.2083659062882889   T   T   T
  0.7499999999070255  0.4999999999380194  0.2083659062882889   T   T   T
  0.0000000000000000 -0.0000000000000000  0.2758463478687109   T   T   T
  0.0000000000000000  0.4999999999380194  0.2758463478687109   T   T   T
  0.4999999999380194  0.0000000000000000  0.2758463478687109   T   T   T
  0.4999999999380194  0.4999999999380194  0.2758463478687109   T   T   T
  0.2499999999690061  0.2499999999690061  0.2758463478687109   T   T   T
  0.2499999999690061  0.7499999999070255  0.2758463478687109   T   T   T
  0.7499999999070255  0.2499999999690061  0.2758463478687109   T   T   T
  0.7499999999070255  0.7499999999070255  0.2758463478687109   T   T   T
 -0.0000000000000000  0.2499999999690061  0.3442807878859537   T   T   T
  0.0000000000000000  0.7499999999070255  0.3442807878859537   T   T   T
  0.4999999999380194  0.2499999999690061  0.3442807878859537   T   T   T
  0.4999999999380194  0.7499999999070255  0.3442807878859537   T   T   T
  0.2499999999690061  0.0000000000000000  0.3442807878859537   T   T   T
  0.2499999999690061  0.4999999999380194  0.3442807878859537   T   T   T
  0.7499999999070255  0.0000000000000000  0.3442807878859537   T   T   T
  0.7499999999070255  0.4999999999380194  0.3442807878859537   T   T   T
 -0.0000000000000000 -0.0000000000000000  0.4120436022543091   T   T   T
 -0.0000000000000000  0.4999999999380194  0.4120436022543091   T   T   T
  0.4999999999380194 -0.0000000000000000  0.4120436022543091   T   T   T
  0.4999999999380194  0.4999999999380194  0.4120436022543091   T   T   T
  0.2499999999690061  0.2499999999690061  0.4120436022543091   T   T   T
  0.2499999999690061  0.7499999999070255  0.4120436022543091   T   T   T
  0.7499999999070255  0.2499999999690061  0.4120436022543091   T   T   T
  0.7499999999070255  0.7499999999070255  0.4120436022543091   T   T   T
 
  0.00000000E+00  0.00000000E+00  0.00000000E+00
  0.00000000E+00  0.00000000E+00  0.00000000E+00
  0.00000000E+00  0.00000000E+00  0.00000000E+00
  0.00000000E+00  0.00000000E+00  0.00000000E+00
  0.00000000E+00  0.00000000E+00  0.00000000E+00
  0.00000000E+00  0.00000000E+00  0.00000000E+00
  0.00000000E+00  0.00000000E+00  0.00000000E+00
  0.00000000E+00  0.00000000E+00  0.00000000E+00
  0.00000000E+00  0.00000000E+00  0.00000000E+00
  0.00000000E+00  0.00000000E+00  0.00000000E+00
  0.00000000E+00  0.00000000E+00  0.00000000E+00
  0.00000000E+00  0.00000000E+00  0.00000000E+00
  0.00000000E+00  0.00000000E+00  0.00000000E+00
  0.00000000E+00  0.00000000E+00  0.00000000E+00
  0.00000000E+00  0.00000000E+00  0.00000000E+00
  0.00000000E+00  0.00000000E+00  0.00000000E+00
  0.00000000E+00  0.00000000E+00  0.00000000E+00
  0.00000000E+00  0.00000000E+00  0.00000000E+00
  0.00000000E+00  0.00000000E+00  0.00000000E+00
  0.00000000E+00  0.00000000E+00  0.00000000E+00
  0.00000000E+00  0.00000000E+00  0.00000000E+00
  0.00000000E+00  0.00000000E+00  0.00000000E+00
  0.00000000E+00  0.00000000E+00  0.00000000E+00
  0.00000000E+00  0.00000000E+00  0.00000000E+00
  0.00000000E+00  0.00000000E+00  0.00000000E+00
  0.00000000E+00  0.00000000E+00  0.00000000E+00
  0.00000000E+00  0.00000000E+00  0.00000000E+00
  0.00000000E+00  0.00000000E+00  0.00000000E+00
  0.00000000E+00  0.00000000E+00  0.00000000E+00
  0.00000000E+00  0.00000000E+00  0.00000000E+00
  0.00000000E+00  0.00000000E+00  0.00000000E+00
  0.00000000E+00  0.00000000E+00  0.00000000E+00
  0.00000000E+00  0.00000000E+00  0.00000000E+00
  0.00000000E+00  0.00000000E+00  0.00000000E+00
  0.00000000E+00  0.00000000E+00  0.00000000E+00
  0.00000000E+00  0.00000000E+00  0.00000000E+00
  0.00000000E+00  0.00000000E+00  0.00000000E+00
  0.00000000E+00  0.00000000E+00  0.00000000E+00
  0.00000000E+00  0.00000000E+00  0.00000000E+00
  0.00000000E+00  0.00000000E+00  0.00000000E+00
  0.00000000E+00  0.00000000E+00  0.00000000E+00
  0.00000000E+00  0.00000000E+00  0.00000000E+00
  0.00000000E+00  0.00000000E+00  0.00000000E+00
  0.00000000E+00  0.00000000E+00  0.00000000E+00
  0.00000000E+00  0.00000000E+00  0.00000000E+00
  0.00000000E+00  0.00000000E+00  0.00000000E+00
  0.00000000E+00  0.00000000E+00  0.00000000E+00
  0.00000000E+00  0.00000000E+00  0.00000000E+00
  0.00000000E+00  0.00000000E+00  0.00000000E+00
  0.00000000E+00  0.00000000E+00  0.00000000E+00
  0.00000000E+00  0.00000000E+00  0.00000000E+00
  0.00000000E+00  0.00000000E+00  0.00000000E+00
  0.00000000E+00  0.00000000E+00  0.00000000E+00
  0.00000000E+00  0.00000000E+00  0.00000000E+00
  0.00000000E+00  0.00000000E+00  0.00000000E+00
  0.00000000E+00  0.00000000E+00  0.00000000E+00
