FCC Cu                                  
1.0
        7.2600002289         0.0000000000         0.0000000000
        0.0000000000         7.2600002289         0.0000000000
        0.0000000000         0.0000000000        25.8899993896
   Cu
   56
Cartesian
     0.000000000         0.000000000         0.000000000
     0.000000000         3.630000114         0.000000000
     3.630000114         0.000000000         0.000000000
     3.630000114         3.630000114         0.000000000
     1.815000057         1.815000057         0.000000000
     1.815000057         5.445000171         0.000000000
     5.445000171         1.815000057         0.000000000
     5.445000171         5.445000171         0.000000000
     0.000000000         1.815000057         1.814999983
     0.000000000         5.445000171         1.814999983
     3.630000114         1.815000057         1.814999983
     3.630000114         5.445000171         1.814999983
     1.815000057         0.000000000         1.814999983
     1.815000057         3.630000114         1.814999983
     5.445000171         0.000000000         1.814999983
     5.445000171         3.630000114         1.814999983
     0.000000000         0.000000000         3.642045370
     0.000000000         3.630000114         3.642045370
     3.630000114         0.000000000         3.642045370
     3.630000114         3.630000114         3.642045370
     1.815000057         1.815000057         3.642045370
     1.815000057         5.445000171         3.642045370
     5.445000171         1.815000057         3.642045370
     5.445000171         5.445000171         3.642045370
     0.000000000         1.815000057         5.394593187
     0.000000000         5.445000171         5.394593187
     3.630000114         1.815000057         5.394593187
     3.630000114         5.445000171         5.394593187
     1.815000057         0.000000000         5.394593187
     1.815000057         3.630000114         5.394593187
     5.445000171         0.000000000         5.394593187
     5.445000171         3.630000114         5.394593187
     0.000000000         0.000000000         7.141661778
     0.000000000         3.630000114         7.141661778
     3.630000114         0.000000000         7.141661778
     3.630000114         3.630000114         7.141661778
     1.815000057         1.815000057         7.141661778
     1.815000057         5.445000171         7.141661778
     5.445000171         1.815000057         7.141661778
     5.445000171         5.445000171         7.141661778
     0.000000000         1.815000057         8.913429388
     0.000000000         5.445000171         8.913429388
     3.630000114         1.815000057         8.913429388
     3.630000114         5.445000171         8.913429388
     1.815000057         0.000000000         8.913429388
     1.815000057         3.630000114         8.913429388
     5.445000171         0.000000000         8.913429388
     5.445000171         3.630000114         8.913429388
     0.000000000         0.000000000        10.667808611
     0.000000000         3.630000114        10.667808611
     3.630000114         0.000000000        10.667808611
     3.630000114         3.630000114        10.667808611
     1.815000057         1.815000057        10.667808611
     1.815000057         5.445000171        10.667808611
     5.445000171         1.815000057        10.667808611
     5.445000171         5.445000171        10.667808611
