FCC Cu                                  
   1.00000000000000     
    10.8900003433000006    0.0000000000000000    0.0000000000000000
     0.0000000000000000   10.8900003433000006    0.0000000000000000
     0.0000000000000000    0.0000000000000000   24.0749999999999993
   Cu
   108
Selective dynamics
Cartesian
0.0 0.0 0.0
0.0 3.6300001139999645 0.0
0.0 7.260000228999964 0.0
3.6300001139999645 0.0 0.0
3.6300001139999645 3.6300001139999645 0.0
3.6300001139999645 7.260000228999964 0.0
7.260000228999964 0.0 0.0
7.260000228999964 3.6300001139999645 0.0
7.260000228999964 7.260000228999964 0.0
1.8150000569999822 1.8150000569999822 0.0
1.8150000569999822 5.445000171000024 0.0
1.8150000569999822 9.075000286000023 0.0
5.445000171000024 1.8150000569999822 0.0
5.445000171000024 5.445000171000024 0.0
5.445000171000024 9.075000286000023 0.0
9.075000286000023 1.8150000569999822 0.0
9.075000286000023 5.445000171000024 0.0
9.075000286000023 9.075000286000023 0.0
0.0 1.8150000569999822 1.8150000260000643
0.0 5.445000171000024 1.8150000260000643
0.0 9.075000286000023 1.8150000260000643
3.6300001139999645 1.8150000569999822 1.8150000260000643
3.6300001139999645 5.445000171000024 1.8150000260000643
3.6300001139999645 9.075000286000023 1.8150000260000643
7.260000228999964 1.8150000569999822 1.8150000260000643
7.260000228999964 5.445000171000024 1.8150000260000643
7.260000228999964 9.075000286000023 1.8150000260000643
1.8150000569999822 0.0 1.8150000260000643
1.8150000569999822 3.6300001139999645 1.8150000260000643
1.8150000569999822 7.260000228999964 1.8150000260000643
5.445000171000024 0.0 1.8150000260000643
5.445000171000024 3.6300001139999645 1.8150000260000643
5.445000171000024 7.260000228999964 1.8150000260000643
9.075000286000023 0.0 1.8150000260000643
9.075000286000023 3.6300001139999645 1.8150000260000643
9.075000286000023 7.260000228999964 1.8150000260000643
0.0 0.0 3.5755139115620764
-0.0 3.6300001139999645 3.5755139115620764
-0.0 7.260000228999964 3.5755139115620764
3.6300001139999645 -0.0 3.5755139115620764
3.6300001139999645 3.6300001139999645 3.5755139115620764
3.6300001139999645 7.260000228999964 3.5755139115620764
7.260000228999964 -0.0 3.5755139115620764
7.260000228999964 3.6300001139999645 3.5755139115620764
7.260000228999964 7.260000228999964 3.5755139115620764
1.8150000569999822 1.8150000569999822 3.5755139115620764
1.8150000569999822 5.445000171000024 3.5755139115620764
1.8150000569999822 9.075000286000023 3.5755139115620764
5.445000171000024 1.8150000569999822 3.5755139115620764
5.445000171000024 5.445000171000024 3.5755139115620764
5.445000171000024 9.075000286000023 3.5755139115620764
9.075000286000023 1.8150000569999822 3.5755139115620764
9.075000286000023 5.445000171000024 3.5755139115620764
9.075000286000023 9.075000286000023 3.5755139115620764
-0.0 1.8150000569999822 5.33210888088481
0.0 5.445000171000024 5.33210888088481
-0.0 9.075000286000023 5.33210888088481
3.6300001139999645 1.8150000569999822 5.33210888088481
3.6300001139999645 5.445000171000024 5.33210888088481
3.6300001139999645 9.075000286000023 5.33210888088481
7.260000228999964 1.8150000569999822 5.33210888088481
7.260000228999964 5.445000171000024 5.33210888088481
7.260000228999964 9.075000286000023 5.33210888088481
1.8150000569999822 0.0 5.33210888088481
1.8150000569999822 3.6300001139999645 5.33210888088481
1.8150000569999822 7.260000228999964 5.33210888088481
5.445000171000024 0.0 5.33210888088481
5.445000171000024 3.6300001139999645 5.33210888088481
5.445000171000024 7.260000228999964 5.33210888088481
9.075000286000023 -0.0 5.33210888088481
9.075000286000023 3.6300001139999645 5.33210888088481
9.075000286000023 7.260000228999964 5.33210888088481
0.0 -0.0 7.10622849656102
0.0 3.6300001139999645 7.10622849656102
0.0 7.260000228999964 7.10622849656102
3.6300001139999645 -0.0 7.10622849656102
3.6300001139999645 3.6300001139999645 7.10622849656102
3.6300001139999645 7.260000228999964 7.10622849656102
7.260000228999964 -0.0 7.10622849656102
7.260000228999964 3.6300001139999645 7.10622849656102
7.260000228999964 7.260000228999964 7.10622849656102
1.8150000569999822 1.8150000569999822 7.10622849656102
1.8150000569999822 5.445000171000024 7.10622849656102
1.8150000569999822 9.075000286000023 7.10622849656102
5.445000171000024 1.8150000569999822 7.10622849656102
5.445000171000024 5.445000171000024 7.10622849656102
5.445000171000024 9.075000286000023 7.10622849656102
9.075000286000023 1.8150000569999822 7.10622849656102
9.075000286000023 5.445000171000024 7.10622849656102
9.075000286000023 9.075000286000023 7.10622849656102
0.0 1.8150000569999822 8.842663720545808
0.0 5.445000171000024 8.842663720545808
0.0 9.075000286000023 8.842663720545808
3.6300001139999645 1.8150000569999822 8.842663720545808
3.6300001139999645 5.445000171000024 8.842663720545808
3.6300001139999645 9.075000286000023 8.842663720545808
7.260000228999964 1.8150000569999822 8.842663720545808
7.260000228999964 5.445000171000024 8.842663720545808
7.260000228999964 9.075000286000023 8.842663720545808
1.8150000569999822 0.0 8.842663720545808
1.8150000569999822 3.6300001139999645 8.842663720545808
1.8150000569999822 7.260000228999964 8.842663720545808
5.445000171000024 -0.0 8.842663720545808
5.445000171000024 3.6300001139999645 8.842663720545808
5.445000171000024 7.260000228999964 8.842663720545808
9.075000286000023 0.0 8.842663720545808
9.075000286000023 3.6300001139999645 8.842663720545808
9.075000286000023 7.260000228999964 8.842663720545808
