FCC Cu                                  
   1.00000000000000     
     3.6300001144000000    0.0000000000000000    0.0000000000000000
     0.0000000000000000    3.6300001144000000    0.0000000000000000
     0.0000000000000000    0.0000000000000000   24.0749999999999993
   Cu
    12
Selective dynamics
Cartesian
0.0 0.0 0.0
1.8150000570000033 1.8150000570000033 0.0
0.0 1.8150000570000033 1.8150000260000643
1.8150000570000033 0.0 1.8150000260000643
0.0 -0.0 3.5229042331914537
1.8150000570000033 1.8150000570000033 3.5229042331914537
0.0 1.8150000570000033 5.2295533081345855
1.8150000570000033 0.0 5.2295533081345855
-0.0 -0.0 6.936120548277726
1.8150000570000033 1.8150000570000033 6.936120548277726
0.0 1.8150000570000033 8.662321456516928
1.8150000570000033 0.0 8.662321456516928
