FCC Cu                                  
   1.00000000000000     
     7.2600002289000001    0.0000000000000000    0.0000000000000000
     0.0000000000000000    5.1335954666000001    0.0000000000000000
     0.0000000000000000    0.0000000000000000   23.9837913512999990
   Cu   H 
    32     2
Selective dynamics
Direct
  0.0000000000000000  0.0000000000000000  0.0000000000000000   F   F   F
  0.0000000000000000  0.4999999999415579  0.0000000000000000   F   F   F
  0.4999999999380194  0.0000000000000000  0.0000000000000000   F   F   F
  0.4999999999380194  0.4999999999415579  0.0000000000000000   F   F   F
  0.2499999999690061  0.2500000000681766  0.0535110904777980   F   F   F
  0.2499999999690061  0.7500000000097415  0.0535110904777980   F   F   F
  0.7499999999070255  0.2500000000681766  0.0535110904777980   F   F   F
  0.7499999999070255  0.7500000000097415  0.0535110904777980   F   F   F
  0.0000000000000000  0.0000000000000000  0.1054137052072122   F   F   F
  0.0000000000000000  0.4999999999415579  0.1054137052072122   F   F   F
  0.4999999999380194  0.0000000000000000  0.1054137052072122   F   F   F
  0.4999999999380194  0.4999999999415579  0.1054137052072122   F   F   F
  0.2499999999690061  0.2500000000681766  0.1572663015616159   T   T   T
  0.2499999999690061  0.7500000000097415  0.1572910421488559   T   T   T
  0.7499999999070255  0.2500000000681766  0.1574431267176116   T   T   T
  0.7499999999070255  0.7500000000097415  0.1574519639032206   T   T   T
  0.0000019376221700 -0.0000069096684990  0.2088626448195757   T   T   T
  0.0000019376221700  0.5000069096100568  0.2088626448195757   T   T   T
  0.4999980623158490 -0.0000069096684990  0.2088626448195757   T   T   T
  0.4999980623158490  0.5000069096100568  0.2088626448195757   T   T   T
  0.2499999999690061  0.2500000000681766  0.2597940349709555   T   T   T
  0.2499999999690061  0.7500000000097415  0.2598231930803120   T   T   T
  0.7499999999070255  0.2500000000681766  0.2596793147022906   T   T   T
  0.7499999999070255  0.7500000000097415  0.2597858590026767   T   T   T
  0.0006240477870093  0.0000391622937477  0.3145384177285783   T   T   T
  0.0006240477870093  0.4999608376478102  0.3145384177285783   T   T   T
  0.4993759521510098  0.0000391622937477  0.3145384177285783   T   T   T
  0.4993759521510097  0.4999608376478102  0.3145384177285783   T   T   T
  0.2499999999690061  0.2500000000681766  0.3623522819492119   T   T   T
  0.2499999999690061  0.7500000000097415  0.3622515734269553   T   T   T
  0.7499999999070255  0.2500000000681766  0.3616355482917510   T   T   T
  0.7499999999070255  0.7500000000097415  0.3619023800684757   T   T   T
  0.7499999999070255  0.7500000000097415  0.4508257579931123   T   T   T
  0.7499999999070255  0.7500000000097415  0.4826214996179357   T   T   T
 
  0.00000000E+00  0.00000000E+00  0.00000000E+00
  0.00000000E+00  0.00000000E+00  0.00000000E+00
  0.00000000E+00  0.00000000E+00  0.00000000E+00
  0.00000000E+00  0.00000000E+00  0.00000000E+00
  0.00000000E+00  0.00000000E+00  0.00000000E+00
  0.00000000E+00  0.00000000E+00  0.00000000E+00
  0.00000000E+00  0.00000000E+00  0.00000000E+00
  0.00000000E+00  0.00000000E+00  0.00000000E+00
  0.00000000E+00  0.00000000E+00  0.00000000E+00
  0.00000000E+00  0.00000000E+00  0.00000000E+00
  0.00000000E+00  0.00000000E+00  0.00000000E+00
  0.00000000E+00  0.00000000E+00  0.00000000E+00
  0.00000000E+00  0.00000000E+00  0.00000000E+00
  0.00000000E+00  0.00000000E+00  0.00000000E+00
  0.00000000E+00  0.00000000E+00  0.00000000E+00
  0.00000000E+00  0.00000000E+00  0.00000000E+00
  0.00000000E+00  0.00000000E+00  0.00000000E+00
  0.00000000E+00  0.00000000E+00  0.00000000E+00
  0.00000000E+00  0.00000000E+00  0.00000000E+00
  0.00000000E+00  0.00000000E+00  0.00000000E+00
  0.00000000E+00  0.00000000E+00  0.00000000E+00
  0.00000000E+00  0.00000000E+00  0.00000000E+00
  0.00000000E+00  0.00000000E+00  0.00000000E+00
  0.00000000E+00  0.00000000E+00  0.00000000E+00
  0.00000000E+00  0.00000000E+00  0.00000000E+00
  0.00000000E+00  0.00000000E+00  0.00000000E+00
  0.00000000E+00  0.00000000E+00  0.00000000E+00
  0.00000000E+00  0.00000000E+00  0.00000000E+00
  0.00000000E+00  0.00000000E+00  0.00000000E+00
  0.00000000E+00  0.00000000E+00  0.00000000E+00
  0.00000000E+00  0.00000000E+00  0.00000000E+00
  0.00000000E+00  0.00000000E+00  0.00000000E+00
  0.00000000E+00  0.00000000E+00  0.00000000E+00
  0.00000000E+00  0.00000000E+00  0.00000000E+00
