FCC Cu                                  
   1.00000000000000     
     3.6300001144000000    0.0000000000000000    0.0000000000000000
     0.0000000000000000    3.6300001144000000    0.0000000000000000
     0.0000000000000000    0.0000000000000000   27.7049999237000009
   Cu
    16
Selective dynamics
Direct
  0.0000000000000000  0.0000000000000000  0.0000000000000000   F   F   F
  0.4999999999449045  0.4999999999449045  0.0000000000000000   F   F   F
  0.0000000000000000  0.4999999999449045  0.0655116416169861   F   F   F
  0.4999999999449045  0.0000000000000000  0.0655116416169861   F   F   F
  0.0000000000000000  0.0000000000000000  0.1287611969605292   T   T   T
  0.4999999999449045  0.4999999999449045  0.1287611969605292   T   T   T
  0.0000000000000000  0.4999999999449045  0.1919318675480967   T   T   T
  0.4999999999449045 -0.0000000000000000  0.1919318675480967   T   T   T
  0.0000000000000000 -0.0000000000000000  0.2540655024750332   T   T   T
  0.4999999999449045  0.4999999999449045  0.2540655024750332   T   T   T
 -0.0000000000000000  0.4999999999449045  0.3174785536282006   T   T   T
  0.4999999999449045 -0.0000000000000000  0.3174785536282006   T   T   T
 -0.0000000000000000  0.0000000000000000  0.3813223253889484   T   T   T
  0.4999999999449045  0.4999999999449045  0.3813223253889484   T   T   T
 -0.0000000000000000  0.4999999999449045  0.4444007500904384   T   T   T
  0.4999999999449045  0.0000000000000000  0.4444007500904384   T   T   T
 
  0.00000000E+00  0.00000000E+00  0.00000000E+00
  0.00000000E+00  0.00000000E+00  0.00000000E+00
  0.00000000E+00  0.00000000E+00  0.00000000E+00
  0.00000000E+00  0.00000000E+00  0.00000000E+00
  0.00000000E+00  0.00000000E+00  0.00000000E+00
  0.00000000E+00  0.00000000E+00  0.00000000E+00
  0.00000000E+00  0.00000000E+00  0.00000000E+00
  0.00000000E+00  0.00000000E+00  0.00000000E+00
  0.00000000E+00  0.00000000E+00  0.00000000E+00
  0.00000000E+00  0.00000000E+00  0.00000000E+00
  0.00000000E+00  0.00000000E+00  0.00000000E+00
  0.00000000E+00  0.00000000E+00  0.00000000E+00
  0.00000000E+00  0.00000000E+00  0.00000000E+00
  0.00000000E+00  0.00000000E+00  0.00000000E+00
  0.00000000E+00  0.00000000E+00  0.00000000E+00
  0.00000000E+00  0.00000000E+00  0.00000000E+00
