FCC Cu                                  
1.0
        3.6300001144         0.0000000000         0.0000000000
        0.0000000000         3.6300001144         0.0000000000
        0.0000000000         0.0000000000        27.7049999237
   Cu
   16
Cartesian
     0.000000000         0.000000000         0.000000000
     1.815000057         1.815000057         0.000000000
     0.000000000         1.815000057         1.815000026
     1.815000057         0.000000000         1.815000026
     0.000000000         0.000000000         3.567328952
     1.815000057         1.815000057         3.567328952
     0.000000000         1.815000057         5.317472376
     1.815000057         0.000000000         5.317472376
     0.000000000         0.000000000         7.038884727
     1.815000057         1.815000057         7.038884727
     0.000000000         1.815000057         8.795743304
     1.815000057         0.000000000         8.795743304
     0.000000000         0.000000000        10.564534996
     1.815000057         1.815000057        10.564534996
     0.000000000         1.815000057        12.312122747
     1.815000057         0.000000000        12.312122747
