FCC Cu                                  
   1.00000000000000     
     7.2600002289000001    0.0000000000000000    0.0000000000000000
     0.0000000000000000    7.2600002289000001    0.0000000000000000
     0.0000000000000000    0.0000000000000000   22.2600000000000016
   Cu
    40
Selective dynamics
Direct
  0.0000000000000000  0.0000000000000000  0.0000000000000000   F   F   F
  0.0000000000000000  0.4999999999380194  0.0000000000000000   F   F   F
  0.4999999999380194  0.0000000000000000  0.0000000000000000   F   F   F
  0.4999999999380194  0.4999999999380194  0.0000000000000000   F   F   F
  0.2499999999690061  0.2499999999690061  0.0000000000000000   F   F   F
  0.2499999999690061  0.7499999999070255  0.0000000000000000   F   F   F
  0.7499999999070255  0.2499999999690061  0.0000000000000000   F   F   F
  0.7499999999070255  0.7499999999070255  0.0000000000000000   F   F   F
  0.0000000000000000  0.2499999999690061  0.0815363893081766   F   F   F
  0.0000000000000000  0.7499999999070255  0.0815363893081766   F   F   F
  0.4999999999380194  0.2499999999690061  0.0815363893081766   F   F   F
  0.4999999999380194  0.7499999999070255  0.0815363893081766   F   F   F
  0.2499999999690061  0.0000000000000000  0.0815363893081766   F   F   F
  0.2499999999690061  0.4999999999380194  0.0815363893081766   F   F   F
  0.7499999999070255  0.0000000000000000  0.0815363893081766   F   F   F
  0.7499999999070255  0.4999999999380194  0.0815363893081766   F   F   F
 -0.0000000000000000  0.0000000000000000  0.1614328287472934   T   T   T
 -0.0000000000000000  0.4999999999380194  0.1614328287472934   T   T   T
  0.4999999999380194  0.0000000000000000  0.1614328287472934   T   T   T
  0.4999999999380194  0.4999999999380194  0.1614328287472934   T   T   T
  0.2499999999690061  0.2499999999690061  0.1614328287472934   T   T   T
  0.2499999999690061  0.7499999999070255  0.1614328287472934   T   T   T
  0.7499999999070255  0.2499999999690061  0.1614328287472934   T   T   T
  0.7499999999070255  0.7499999999070255  0.1614328287472934   T   T   T
 -0.0000000000000000  0.2499999999690061  0.2415437649785464   T   T   T
  0.0000000000000000  0.7499999999070255  0.2415437649785464   T   T   T
  0.4999999999380194  0.2499999999690061  0.2415437649785464   T   T   T
  0.4999999999380194  0.7499999999070255  0.2415437649785464   T   T   T
  0.2499999999690061 -0.0000000000000000  0.2415437649785464   T   T   T
  0.2499999999690061  0.4999999999380194  0.2415437649785464   T   T   T
  0.7499999999070255  0.0000000000000000  0.2415437649785464   T   T   T
  0.7499999999070255  0.4999999999380194  0.2415437649785464   T   T   T
 -0.0000000000000000  0.0000000000000000  0.3197587880339364   T   T   T
  0.0000000000000000  0.4999999999380194  0.3197587880339364   T   T   T
  0.4999999999380194  0.0000000000000000  0.3197587880339364   T   T   T
  0.4999999999380194  0.4999999999380194  0.3197587880339364   T   T   T
  0.2499999999690061  0.2499999999690061  0.3197587880339364   T   T   T
  0.2499999999690061  0.7499999999070255  0.3197587880339364   T   T   T
  0.7499999999070255  0.2499999999690061  0.3197587880339364   T   T   T
  0.7499999999070255  0.7499999999070255  0.3197587880339364   T   T   T
 
  0.00000000E+00  0.00000000E+00  0.00000000E+00
  0.00000000E+00  0.00000000E+00  0.00000000E+00
  0.00000000E+00  0.00000000E+00  0.00000000E+00
  0.00000000E+00  0.00000000E+00  0.00000000E+00
  0.00000000E+00  0.00000000E+00  0.00000000E+00
  0.00000000E+00  0.00000000E+00  0.00000000E+00
  0.00000000E+00  0.00000000E+00  0.00000000E+00
  0.00000000E+00  0.00000000E+00  0.00000000E+00
  0.00000000E+00  0.00000000E+00  0.00000000E+00
  0.00000000E+00  0.00000000E+00  0.00000000E+00
  0.00000000E+00  0.00000000E+00  0.00000000E+00
  0.00000000E+00  0.00000000E+00  0.00000000E+00
  0.00000000E+00  0.00000000E+00  0.00000000E+00
  0.00000000E+00  0.00000000E+00  0.00000000E+00
  0.00000000E+00  0.00000000E+00  0.00000000E+00
  0.00000000E+00  0.00000000E+00  0.00000000E+00
  0.00000000E+00  0.00000000E+00  0.00000000E+00
  0.00000000E+00  0.00000000E+00  0.00000000E+00
  0.00000000E+00  0.00000000E+00  0.00000000E+00
  0.00000000E+00  0.00000000E+00  0.00000000E+00
  0.00000000E+00  0.00000000E+00  0.00000000E+00
  0.00000000E+00  0.00000000E+00  0.00000000E+00
  0.00000000E+00  0.00000000E+00  0.00000000E+00
  0.00000000E+00  0.00000000E+00  0.00000000E+00
  0.00000000E+00  0.00000000E+00  0.00000000E+00
  0.00000000E+00  0.00000000E+00  0.00000000E+00
  0.00000000E+00  0.00000000E+00  0.00000000E+00
  0.00000000E+00  0.00000000E+00  0.00000000E+00
  0.00000000E+00  0.00000000E+00  0.00000000E+00
  0.00000000E+00  0.00000000E+00  0.00000000E+00
  0.00000000E+00  0.00000000E+00  0.00000000E+00
  0.00000000E+00  0.00000000E+00  0.00000000E+00
  0.00000000E+00  0.00000000E+00  0.00000000E+00
  0.00000000E+00  0.00000000E+00  0.00000000E+00
  0.00000000E+00  0.00000000E+00  0.00000000E+00
  0.00000000E+00  0.00000000E+00  0.00000000E+00
  0.00000000E+00  0.00000000E+00  0.00000000E+00
  0.00000000E+00  0.00000000E+00  0.00000000E+00
  0.00000000E+00  0.00000000E+00  0.00000000E+00
  0.00000000E+00  0.00000000E+00  0.00000000E+00
