FCC Cu                                  
1.0
        7.2600002289         0.0000000000         0.0000000000
        0.0000000000         7.2600002289         0.0000000000
        0.0000000000         0.0000000000        22.2600002289
   Cu
   40
Cartesian
     0.000000000         0.000000000         0.000000000
     0.000000000         3.630000114         0.000000000
     3.630000114         0.000000000         0.000000000
     3.630000114         3.630000114         0.000000000
     1.815000057         1.815000057         0.000000000
     1.815000057         5.445000171         0.000000000
     5.445000171         1.815000057         0.000000000
     5.445000171         5.445000171         0.000000000
     0.000000000         1.815000057         1.815000045
     0.000000000         5.445000171         1.815000045
     3.630000114         1.815000057         1.815000045
     3.630000114         5.445000171         1.815000045
     1.815000057         0.000000000         1.815000045
     1.815000057         3.630000114         1.815000045
     5.445000171         0.000000000         1.815000045
     5.445000171         3.630000114         1.815000045
     0.000000000         0.000000000         3.593494805
     0.000000000         3.630000114         3.593494805
     3.630000114         0.000000000         3.593494805
     3.630000114         3.630000114         3.593494805
     1.815000057         1.815000057         3.593494805
     1.815000057         5.445000171         3.593494805
     5.445000171         1.815000057         3.593494805
     5.445000171         5.445000171         3.593494805
     0.000000000         1.815000057         5.376764264
     0.000000000         5.445000171         5.376764264
     3.630000114         1.815000057         5.376764264
     3.630000114         5.445000171         5.376764264
     1.815000057         0.000000000         5.376764264
     1.815000057         3.630000114         5.376764264
     5.445000171         0.000000000         5.376764264
     5.445000171         3.630000114         5.376764264
     0.000000000         0.000000000         7.117830695
     0.000000000         3.630000114         7.117830695
     3.630000114         0.000000000         7.117830695
     3.630000114         3.630000114         7.117830695
     1.815000057         1.815000057         7.117830695
     1.815000057         5.445000171         7.117830695
     5.445000171         1.815000057         7.117830695
     5.445000171         5.445000171         7.117830695
