FCC Cu                                  
   1.00000000000000     
     7.2600002289000001    0.0000000000000000    0.0000000000000000
     0.0000000000000000    5.1335954666000001    0.0000000000000000
     0.0000000000000000    0.0000000000000000   23.9837913512999990
   Cu   H 
    32     2
Selective dynamics
Direct
  0.0000000000000000  0.0000000000000000  0.0000000000000000   F   F   F
  0.0000000000000000  0.4999999999415579  0.0000000000000000   F   F   F
  0.4999999999380194  0.0000000000000000  0.0000000000000000   F   F   F
  0.4999999999380194  0.4999999999415579  0.0000000000000000   F   F   F
  0.2499999999690061  0.2500000000681766  0.0535110904777980   F   F   F
  0.2499999999690061  0.7500000000097415  0.0535110904777980   F   F   F
  0.7499999999070255  0.2500000000681766  0.0535110904777980   F   F   F
  0.7499999999070255  0.7500000000097415  0.0535110904777980   F   F   F
  0.0000000000000000  0.0000000000000000  0.1054137052072122   F   F   F
  0.0000000000000000  0.4999999999415579  0.1054137052072122   F   F   F
  0.4999999999380194  0.0000000000000000  0.1054137052072122   F   F   F
  0.4999999999380194  0.4999999999415579  0.1054137052072122   F   F   F
  0.2499999999690061  0.2451570041116473  0.1570109725204505   T   T   T
  0.2499999999690061  0.7450551879426077  0.1571003565016137   T   T   T
  0.7499999999070255  0.2450566819858356  0.1574544082410196   T   T   T
  0.7499999999070255  0.7448236335167979  0.1578468611578359   T   T   T
 -0.0001187257236622 -0.0096385113973639  0.2085996740265710   T   T   T
 -0.0002494794755453  0.4904956568967363  0.2086343476308086   T   T   T
  0.5001187256616817 -0.0096385113973639  0.2085996740265710   T   T   T
  0.5002494794135651  0.4904956568967363  0.2086343476308086   T   T   T
  0.2499999999690061  0.2369503960065294  0.2590823097472498   T   T   T
  0.2499999999690061  0.7367803290160667  0.2591949623804097   T   T   T
  0.7499999999070255  0.2373898287621451  0.2595175767656793   T   T   T
  0.7499999999070255  0.7371968967295887  0.2612724487675331   T   T   T
  0.0012743643722247 -0.0156358515920619  0.3138349829388463   T   T   T
  0.0011772752754041  0.4840113764956839  0.3137905361160065   T   T   T
  0.4987256355657948 -0.0156358515920619  0.3138349829388463   T   T   T
  0.4988227246626153  0.4840113764956839  0.3137905361160065   T   T   T
  0.2499999999690061  0.2347347039415390  0.3618965718253395   T   T   T
  0.2499999999690061  0.7345041125249741  0.3616895152980832   T   T   T
  0.7499999999070255  0.2314515964604512  0.3605684375523777   T   T   T
  0.7499999999070255  0.7318260836008323  0.3635767304542428   T   T   T
  0.7499999999070255  0.6441876732964754  0.4341617877413178   T   T   T
  0.7499999999070255  0.8019445460332768  0.4349459204397460   T   T   T
 
  0.00000000E+00  0.00000000E+00  0.00000000E+00
  0.00000000E+00  0.00000000E+00  0.00000000E+00
  0.00000000E+00  0.00000000E+00  0.00000000E+00
  0.00000000E+00  0.00000000E+00  0.00000000E+00
  0.00000000E+00  0.00000000E+00  0.00000000E+00
  0.00000000E+00  0.00000000E+00  0.00000000E+00
  0.00000000E+00  0.00000000E+00  0.00000000E+00
  0.00000000E+00  0.00000000E+00  0.00000000E+00
  0.00000000E+00  0.00000000E+00  0.00000000E+00
  0.00000000E+00  0.00000000E+00  0.00000000E+00
  0.00000000E+00  0.00000000E+00  0.00000000E+00
  0.00000000E+00  0.00000000E+00  0.00000000E+00
  0.00000000E+00  0.00000000E+00  0.00000000E+00
  0.00000000E+00  0.00000000E+00  0.00000000E+00
  0.00000000E+00  0.00000000E+00  0.00000000E+00
  0.00000000E+00  0.00000000E+00  0.00000000E+00
  0.00000000E+00  0.00000000E+00  0.00000000E+00
  0.00000000E+00  0.00000000E+00  0.00000000E+00
  0.00000000E+00  0.00000000E+00  0.00000000E+00
  0.00000000E+00  0.00000000E+00  0.00000000E+00
  0.00000000E+00  0.00000000E+00  0.00000000E+00
  0.00000000E+00  0.00000000E+00  0.00000000E+00
  0.00000000E+00  0.00000000E+00  0.00000000E+00
  0.00000000E+00  0.00000000E+00  0.00000000E+00
  0.00000000E+00  0.00000000E+00  0.00000000E+00
  0.00000000E+00  0.00000000E+00  0.00000000E+00
  0.00000000E+00  0.00000000E+00  0.00000000E+00
  0.00000000E+00  0.00000000E+00  0.00000000E+00
  0.00000000E+00  0.00000000E+00  0.00000000E+00
  0.00000000E+00  0.00000000E+00  0.00000000E+00
  0.00000000E+00  0.00000000E+00  0.00000000E+00
  0.00000000E+00  0.00000000E+00  0.00000000E+00
  0.00000000E+00  0.00000000E+00  0.00000000E+00
  0.00000000E+00  0.00000000E+00  0.00000000E+00
