FCC Cu                                  
   1.00000000000000     
     5.1335954666000001    0.0000000000000000    0.0000000000000000
     2.5667977333000001    4.4458240868000001    0.0000000000000000
     0.0000000000000000    0.0000000000000000   29.6704711914000008
   Cu   H 
    32     2
Direct
  0.0000000000000000  0.0000000000000000 -0.0005731326979223
  0.0000007161958904  0.4999996417712683 -0.0005903653672360
  0.4999996418028022  0.0000007162775248 -0.0005903653672360
  0.4999996419159632  0.4999996417712683 -0.0005903653672360
  0.1666027211504384  0.1666027210372773  0.0685405907208625
  0.1666027212635994  0.6667945577455078  0.0685405907208625
  0.6667945578902027  0.1666027210372773  0.0685405907208625
  0.6666666668045664  0.6666666665467034  0.0686444049995097
  0.3333333333048856  0.3333333332733517  0.1361250234699549
  0.3331381871911567  0.8334309062968277  0.1362913374766986
  0.8334309063598884  0.3331381870464618  0.1362913374766986
  0.8334309064730565  0.8334309062968277  0.1362913374766986
  0.0000000000000000  0.0000000000000000  0.2044330752807691
  0.0001684617871655  0.4999157689756311  0.2043614562256055
  0.4999157690071650  0.0001684618687997  0.2043614562256055
  0.4999157691203260  0.4999157689756311  0.2043614562256055
  0.1666983217329952  0.1666983216198342  0.2725390474857659
  0.1666983218461562  0.6666033565803938  0.2725390474857659
  0.6666033567250887  0.1666983216198342  0.2725390474857659
  0.6666666668045664  0.6666666665467034  0.2725606843590513
  0.3333333333048856  0.3333333332733517  0.3408126209446707
  0.3330958174499347  0.8334520911674391  0.3408824734910512
  0.8334520912304998  0.3330958173052398  0.3408824734910512
  0.8334520913436679  0.8334520911674391  0.3408824734910512
  0.0000000000000000  0.0000000000000000  0.4088959523887847
  0.0003572061281217  0.4998213968051531  0.4086638793740845
  0.4998213968366870  0.0003572062097560  0.4086638793740845
  0.4998213969498480  0.4998213968051531  0.4086638793740845
  0.1668117154518506  0.1668117153386895  0.4779888833205804
  0.1668117155650116  0.6663765691426833  0.4779888833205804
  0.6663765692873782  0.1668117153386895  0.4779888833205804
  0.6666666668045664  0.6666666665467034  0.4777182594010916
  0.6666666668045664  0.6666666665467034  0.5677039433743399
  0.6666666668045664  0.6666666665467034  0.5931903567294112
 
  0.00000000E+00  0.00000000E+00  0.00000000E+00
  0.00000000E+00  0.00000000E+00  0.00000000E+00
  0.00000000E+00  0.00000000E+00  0.00000000E+00
  0.00000000E+00  0.00000000E+00  0.00000000E+00
  0.00000000E+00  0.00000000E+00  0.00000000E+00
  0.00000000E+00  0.00000000E+00  0.00000000E+00
  0.00000000E+00  0.00000000E+00  0.00000000E+00
  0.00000000E+00  0.00000000E+00  0.00000000E+00
  0.00000000E+00  0.00000000E+00  0.00000000E+00
  0.00000000E+00  0.00000000E+00  0.00000000E+00
  0.00000000E+00  0.00000000E+00  0.00000000E+00
  0.00000000E+00  0.00000000E+00  0.00000000E+00
  0.00000000E+00  0.00000000E+00  0.00000000E+00
  0.00000000E+00  0.00000000E+00  0.00000000E+00
  0.00000000E+00  0.00000000E+00  0.00000000E+00
  0.00000000E+00  0.00000000E+00  0.00000000E+00
  0.00000000E+00  0.00000000E+00  0.00000000E+00
  0.00000000E+00  0.00000000E+00  0.00000000E+00
  0.00000000E+00  0.00000000E+00  0.00000000E+00
  0.00000000E+00  0.00000000E+00  0.00000000E+00
  0.00000000E+00  0.00000000E+00  0.00000000E+00
  0.00000000E+00  0.00000000E+00  0.00000000E+00
  0.00000000E+00  0.00000000E+00  0.00000000E+00
  0.00000000E+00  0.00000000E+00  0.00000000E+00
  0.00000000E+00  0.00000000E+00  0.00000000E+00
  0.00000000E+00  0.00000000E+00  0.00000000E+00
  0.00000000E+00  0.00000000E+00  0.00000000E+00
  0.00000000E+00  0.00000000E+00  0.00000000E+00
  0.00000000E+00  0.00000000E+00  0.00000000E+00
  0.00000000E+00  0.00000000E+00  0.00000000E+00
  0.00000000E+00  0.00000000E+00  0.00000000E+00
  0.00000000E+00  0.00000000E+00  0.00000000E+00
  0.00000000E+00  0.00000000E+00  0.00000000E+00
  0.00000000E+00  0.00000000E+00  0.00000000E+00
