FCC Cu                                  
   1.00000000000000     
     3.6300001144000000    0.0000000000000000    0.0000000000000000
     0.0000000000000000    3.6300001144000000    0.0000000000000000
     0.0000000000000000    0.0000000000000000   25.8900000000000006
   Cu
    14
Selective dynamics
Direct
  0.0000000000000000  0.0000000000000000  0.0000000000000000   F   F   F
  0.4999999999449045  0.4999999999449045  0.0000000000000000   F   F   F
  0.0000000000000000  0.4999999999449045  0.0701042883738907   F   F   F
  0.4999999999449045  0.0000000000000000  0.0701042883738907   F   F   F
 -0.0000000000000000  0.0000000000000000  0.1373400854097248   T   T   T
  0.4999999999449045  0.4999999999449045  0.1373400854097248   T   T   T
  0.0000000000000000  0.4999999999449045  0.2039398924995548   T   T   T
  0.4999999999449045  0.0000000000000000  0.2039398924995548   T   T   T
  0.0000000000000000  0.0000000000000000  0.2706541332825546   T   T   T
  0.4999999999449045  0.4999999999449045  0.2706541332825546   T   T   T
 -0.0000000000000000  0.4999999999449045  0.3383420416307055   T   T   T
  0.4999999999449045  0.0000000000000000  0.3383420416307055   T   T   T
  0.0000000000000000  0.0000000000000000  0.4061287089495949   T   T   T
  0.4999999999449045  0.4999999999449045  0.4061287089495949   T   T   T
 
  0.00000000E+00  0.00000000E+00  0.00000000E+00
  0.00000000E+00  0.00000000E+00  0.00000000E+00
  0.00000000E+00  0.00000000E+00  0.00000000E+00
  0.00000000E+00  0.00000000E+00  0.00000000E+00
  0.00000000E+00  0.00000000E+00  0.00000000E+00
  0.00000000E+00  0.00000000E+00  0.00000000E+00
  0.00000000E+00  0.00000000E+00  0.00000000E+00
  0.00000000E+00  0.00000000E+00  0.00000000E+00
  0.00000000E+00  0.00000000E+00  0.00000000E+00
  0.00000000E+00  0.00000000E+00  0.00000000E+00
  0.00000000E+00  0.00000000E+00  0.00000000E+00
  0.00000000E+00  0.00000000E+00  0.00000000E+00
  0.00000000E+00  0.00000000E+00  0.00000000E+00
  0.00000000E+00  0.00000000E+00  0.00000000E+00
