FCC Cu                                  
   1.00000000000000     
     3.6300001144000000    0.0000000000000000    0.0000000000000000
     0.0000000000000000    3.6300001144000000    0.0000000000000000
     0.0000000000000000    0.0000000000000000   25.8900000000000006
   Cu
    14
Selective dynamics
Cartesian
0.0 0.0 0.0
1.8150000570000033 1.8150000570000033 0.0
0.0 1.8150000570000033 1.81500002600003
1.8150000570000033 0.0 1.81500002600003
-0.0 0.0 3.5557348112577754
1.8150000570000033 1.8150000570000033 3.5557348112577754
0.0 1.8150000570000033 5.2800038168134735
1.8150000570000033 0.0 5.2800038168134735
0.0 0.0 7.007235510685339
1.8150000570000033 1.8150000570000033 7.007235510685339
-0.0 1.8150000570000033 8.759675457818966
1.8150000570000033 0.0 8.759675457818966
0.0 0.0 10.514672274705012
1.8150000570000033 1.8150000570000033 10.514672274705012
