FCC Cu                                  
   1.00000000000000     
     7.2600002289000001    0.0000000000000000    0.0000000000000000
     0.0000000000000000    5.1335954666000001    0.0000000000000000
     0.0000000000000000    0.0000000000000000   23.9837913512999990
   Cu
    32
Selective dynamics
Direct
  0.0000000000000000  0.0000000000000000  0.0000000000000000   F   F   F
  0.0000000000000000  0.4999999999415579  0.0000000000000000   F   F   F
  0.4999999999380194  0.0000000000000000  0.0000000000000000   F   F   F
  0.4999999999380194  0.4999999999415579  0.0000000000000000   F   F   F
  0.2499999999690061  0.2500000000681766  0.0535110904777980   F   F   F
  0.2499999999690061  0.7500000000097415  0.0535110904777980   F   F   F
  0.7499999999070255  0.2500000000681766  0.0535110904777980   F   F   F
  0.7499999999070255  0.7500000000097415  0.0535110904777980   F   F   F
  0.0000000000000000  0.0000000000000000  0.1054137052072092   T   T   T
 -0.0000000000000000  0.4999999999415579  0.1054137052072092   T   T   T
  0.4999999999380194  0.0000000000000000  0.1054137052072092   T   T   T
  0.4999999999380194  0.4999999999415579  0.1054137052072092   T   T   T
  0.2499999999690061  0.2500000000681766  0.1571500960411996   T   T   T
  0.2499999999690061  0.7500000000097415  0.1571500960411996   T   T   T
  0.7499999999070255  0.2500000000681766  0.1571500960411996   T   T   T
  0.7499999999070255  0.7500000000097415  0.1571500960411996   T   T   T
  0.0000000000000000  0.0000000000000000  0.2086625692639245   T   T   T
 -0.0000000000000000  0.4999999999415579  0.2086625692639245   T   T   T
  0.4999999999380194  0.0000000000000000  0.2086625692639245   T   T   T
  0.4999999999380194  0.4999999999415579  0.2086625692639245   T   T   T
  0.2499999999690061  0.2500000000681766  0.2594796529379887   T   T   T
  0.2499999999690061  0.7500000000097415  0.2594796529379887   T   T   T
  0.7499999999070255  0.2500000000681766  0.2594796529379887   T   T   T
  0.7499999999070255  0.7500000000097415  0.2594796529379887   T   T   T
 -0.0000000000000000  0.0000000000000000  0.3141541497962087   T   T   T
 -0.0000000000000000  0.4999999999415579  0.3141541497962087   T   T   T
  0.4999999999380194 -0.0000000000000000  0.3141541497962087   T   T   T
  0.4999999999380194  0.4999999999415579  0.3141541497962087   T   T   T
  0.2499999999690061  0.2500000000681766  0.3618179894900920   T   T   T
  0.2499999999690061  0.7500000000097415  0.3618179894900920   T   T   T
  0.7499999999070255  0.2500000000681766  0.3618179894900920   T   T   T
  0.7499999999070255  0.7500000000097415  0.3618179894900920   T   T   T
 
  0.00000000E+00  0.00000000E+00  0.00000000E+00
  0.00000000E+00  0.00000000E+00  0.00000000E+00
  0.00000000E+00  0.00000000E+00  0.00000000E+00
  0.00000000E+00  0.00000000E+00  0.00000000E+00
  0.00000000E+00  0.00000000E+00  0.00000000E+00
  0.00000000E+00  0.00000000E+00  0.00000000E+00
  0.00000000E+00  0.00000000E+00  0.00000000E+00
  0.00000000E+00  0.00000000E+00  0.00000000E+00
  0.00000000E+00  0.00000000E+00  0.00000000E+00
  0.00000000E+00  0.00000000E+00  0.00000000E+00
  0.00000000E+00  0.00000000E+00  0.00000000E+00
  0.00000000E+00  0.00000000E+00  0.00000000E+00
  0.00000000E+00  0.00000000E+00  0.00000000E+00
  0.00000000E+00  0.00000000E+00  0.00000000E+00
  0.00000000E+00  0.00000000E+00  0.00000000E+00
  0.00000000E+00  0.00000000E+00  0.00000000E+00
  0.00000000E+00  0.00000000E+00  0.00000000E+00
  0.00000000E+00  0.00000000E+00  0.00000000E+00
  0.00000000E+00  0.00000000E+00  0.00000000E+00
  0.00000000E+00  0.00000000E+00  0.00000000E+00
  0.00000000E+00  0.00000000E+00  0.00000000E+00
  0.00000000E+00  0.00000000E+00  0.00000000E+00
  0.00000000E+00  0.00000000E+00  0.00000000E+00
  0.00000000E+00  0.00000000E+00  0.00000000E+00
  0.00000000E+00  0.00000000E+00  0.00000000E+00
  0.00000000E+00  0.00000000E+00  0.00000000E+00
  0.00000000E+00  0.00000000E+00  0.00000000E+00
  0.00000000E+00  0.00000000E+00  0.00000000E+00
  0.00000000E+00  0.00000000E+00  0.00000000E+00
  0.00000000E+00  0.00000000E+00  0.00000000E+00
  0.00000000E+00  0.00000000E+00  0.00000000E+00
  0.00000000E+00  0.00000000E+00  0.00000000E+00
