FCC Cu                                  
   1.00000000000000     
     7.2600002289000001    0.0000000000000000    0.0000000000000000
     0.0000000000000000    5.1335954666000001    0.0000000000000000
     0.0000000000000000    0.0000000000000000   23.9837913512999990
   Cu
    32
Selective dynamics
Cartesian
0.0 0.0 0.0
0.0 2.566797732999982 0.0
3.630000114000021 0.0 0.0
3.630000114000021 2.566797732999982 0.0
1.8150000569999842 1.283398866999991 1.2833988290000433
1.8150000569999842 3.850196600000009 1.2833988290000433
5.445000171000005 1.283398866999991 1.2833988290000433
5.445000171000005 3.850196600000009 1.2833988290000433
0.0 0.0 2.5282203112571517
-0.0 2.566797732999982 2.5282203112571517
3.630000114000021 0.0 2.5282203112571517
3.630000114000021 2.566797732999982 2.5282203112571517
1.8150000569999842 1.283398866999991 3.769055114288887
1.8150000569999842 3.850196600000009 3.769055114288887
5.445000171000005 1.283398866999991 3.769055114288887
5.445000171000005 3.850196600000009 3.769055114288887
0.0 0.0 5.004519524052149
-0.0 2.566797732999982 5.004519524052149
3.630000114000021 0.0 5.004519524052149
3.630000114000021 2.566797732999982 5.004519524052149
1.8150000569999842 1.283398866999991 6.223305855972458
1.8150000569999842 3.850196600000009 6.223305855972458
5.445000171000005 1.283398866999991 6.223305855972458
5.445000171000005 3.850196600000009 6.223305855972458
-0.0 0.0 7.5346075808573145
-0.0 2.566797732999982 7.5346075808573145
3.630000114000021 -0.0 7.5346075808573145
3.630000114000021 2.566797732999982 7.5346075808573145
1.8150000569999842 1.283398866999991 8.677767167077223
1.8150000569999842 3.850196600000009 8.677767167077223
5.445000171000005 1.283398866999991 8.677767167077223
5.445000171000005 3.850196600000009 8.677767167077223
