FCC Cu                                  
   1.00000000000000     
     7.2600002289000001    0.0000000000000000    0.0000000000000000
     0.0000000000000000    5.1335954666000001    0.0000000000000000
     0.0000000000000000    0.0000000000000000   22.7003929999999983
   Cu
    28
Selective dynamics
Cartesian
0.0 0.0 0.0
0.0 2.5667977330000187 0.0
3.630000114000021 0.0 0.0
3.630000114000021 2.5667977330000187 0.0
1.8150000569999842 1.283398866999991 1.283398829000009
1.8150000569999842 3.850196600000009 1.283398829000009
5.445000171000005 1.283398866999991 1.283398829000009
5.445000171000005 3.850196600000009 1.283398829000009
0.0 0.0 2.5166946993657864
-0.0 2.5667977330000187 2.5166946993657864
3.630000114000021 -0.0 2.5166946993657864
3.630000114000021 2.5667977330000187 2.5166946993657864
1.8150000569999842 1.283398866999991 3.7638185041524825
1.8150000569999842 3.850196600000009 3.7638185041524825
5.445000171000005 1.283398866999991 3.7638185041524825
5.445000171000005 3.850196600000009 3.7638185041524825
0.0 -0.0 4.977300794794964
0.0 2.5667977330000187 4.977300794794964
3.630000114000021 -0.0 4.977300794794964
3.630000114000021 2.5667977330000187 4.977300794794964
1.8150000569999842 1.283398866999991 6.281194819221877
1.8150000569999842 3.850196600000009 6.281194819221877
5.445000171000005 1.283398866999991 6.281194819221877
5.445000171000005 3.850196600000009 6.281194819221877
-0.0 -0.0 7.42639609559255
-0.0 2.5667977330000187 7.42639609559255
3.630000114000021 -0.0 7.42639609559255
3.630000114000021 2.5667977330000187 7.42639609559255
