FCC Cu                                  
   1.00000000000000     
     7.2600002289000001    0.0000000000000000    0.0000000000000000
     0.0000000000000000    7.2600002289000001    0.0000000000000000
     0.0000000000000000    0.0000000000000000   22.2600000000000016
   Cu
    40
Selective dynamics
Cartesian
0.0 0.0 0.0
0.0 3.630000114000021 0.0
3.630000114000021 0.0 0.0
3.630000114000021 3.630000114000021 0.0
1.8150000569999842 1.8150000569999842 0.0
1.8150000569999842 5.445000171000005 0.0
5.445000171000005 1.8150000569999842 0.0
5.445000171000005 5.445000171000005 0.0
0.0 1.8150000569999842 1.8150000260000112
0.0 5.445000171000005 1.8150000260000112
3.630000114000021 1.8150000569999842 1.8150000260000112
3.630000114000021 5.445000171000005 1.8150000260000112
1.8150000569999842 0.0 1.8150000260000112
1.8150000569999842 3.630000114000021 1.8150000260000112
5.445000171000005 0.0 1.8150000260000112
5.445000171000005 3.630000114000021 1.8150000260000112
-0.0 0.0 3.593494767914751
-0.0 3.630000114000021 3.593494767914751
3.630000114000021 0.0 3.593494767914751
3.630000114000021 3.630000114000021 3.593494767914751
1.8150000569999842 1.8150000569999842 3.593494767914751
1.8150000569999842 5.445000171000005 3.593494767914751
5.445000171000005 1.8150000569999842 3.593494767914751
5.445000171000005 5.445000171000005 3.593494767914751
-0.0 1.8150000569999842 5.376764208422443
0.0 5.445000171000005 5.376764208422443
3.630000114000021 1.8150000569999842 5.376764208422443
3.630000114000021 5.445000171000005 5.376764208422443
1.8150000569999842 -0.0 5.376764208422443
1.8150000569999842 3.630000114000021 5.376764208422443
5.445000171000005 0.0 5.376764208422443
5.445000171000005 3.630000114000021 5.376764208422443
-0.0 0.0 7.1178306216354255
0.0 3.630000114000021 7.1178306216354255
3.630000114000021 0.0 7.1178306216354255
3.630000114000021 3.630000114000021 7.1178306216354255
1.8150000569999842 1.8150000569999842 7.1178306216354255
1.8150000569999842 5.445000171000005 7.1178306216354255
5.445000171000005 1.8150000569999842 7.1178306216354255
5.445000171000005 5.445000171000005 7.1178306216354255
