FCC Cu                                  
   1.00000000000000     
     5.1335954666000001    0.0000000000000000    0.0000000000000000
     2.5667977333000001    4.4458240868000001    0.0000000000000000
     0.0000000000000000    0.0000000000000000   29.6704711914000008
   Cu   H 
    32     2
Direct
  0.0014355314605404 -0.0027638325093004 -0.0014740309045504
  0.0013930967045679  0.4972138063376262 -0.0014838198225508
  0.5013283009903249 -0.0027638325093004 -0.0014740309045504
  0.5013578069899843  0.4972843860395149 -0.0014590110037175
  0.1685116167107152  0.1629767667149297  0.0677963629956962
  0.1685137965592901  0.6629285791515006  0.0677701391839137
  0.6685222292384124  0.1629555415426511  0.0677607208459107
  0.6685576245034802  0.6629285791515006  0.0677701391839137
  0.3359174357376449  0.3282348014116912  0.1356020435257018
  0.3359351447734913  0.8281297104724934  0.1355899291909793
  0.8358477626753443  0.3282348014116912  0.1356020435257018
  0.8359210614207755  0.8281578770610559  0.1355822106123315
  0.0036330500422938 -0.0073032137213838  0.2038900176778227
  0.0036847097745710  0.4926305801976205  0.2039045223291212
  0.5036701636206550 -0.0073032137213838  0.2038900176778227
  0.5036793133724354  0.4926413732746130  0.2039070300217374
  0.1707775046842972  0.1584449907677659  0.2721669505571827
  0.1707326410690356  0.6584013948453179  0.2721134888877265
  0.6708684040773847  0.1582631918647066  0.2721520663224329
  0.6708659642999175  0.6584013948453179  0.2721134888877265
  0.3374950748698219  0.3251921911415204  0.3404525505150592
  0.3374917105890880  0.8250165788413000  0.3404172172489118
  0.8373127338133385  0.3251921911415204  0.3404525505150592
  0.8374757935662472  0.8250484127701119  0.3404920104683435
  0.0043372368396937 -0.0085761117171055  0.4082808023000445
  0.0043037705228223  0.4913924587011183  0.4082456732732804
  0.5042388748189766 -0.0085761117171055  0.4082808023000445
  0.5042478814486041  0.4915042371222738  0.4082767021365737
  0.1704458615455372  0.1591082770452857  0.4773725594094594
  0.1706888407288810  0.6585826998562887  0.4774523218731841
  0.6706327925962345  0.1587344148270059  0.4774896478225920
  0.6707284596291025  0.6585826998562887  0.4774523218731841
  0.2555603254483663  0.9888793492526164  0.5652190812344742
  0.2233218634469819  0.0533562732553783  0.5887957336343066
 
  0.00000000E+00  0.00000000E+00  0.00000000E+00
  0.00000000E+00  0.00000000E+00  0.00000000E+00
  0.00000000E+00  0.00000000E+00  0.00000000E+00
  0.00000000E+00  0.00000000E+00  0.00000000E+00
  0.00000000E+00  0.00000000E+00  0.00000000E+00
  0.00000000E+00  0.00000000E+00  0.00000000E+00
  0.00000000E+00  0.00000000E+00  0.00000000E+00
  0.00000000E+00  0.00000000E+00  0.00000000E+00
  0.00000000E+00  0.00000000E+00  0.00000000E+00
  0.00000000E+00  0.00000000E+00  0.00000000E+00
  0.00000000E+00  0.00000000E+00  0.00000000E+00
  0.00000000E+00  0.00000000E+00  0.00000000E+00
  0.00000000E+00  0.00000000E+00  0.00000000E+00
  0.00000000E+00  0.00000000E+00  0.00000000E+00
  0.00000000E+00  0.00000000E+00  0.00000000E+00
  0.00000000E+00  0.00000000E+00  0.00000000E+00
  0.00000000E+00  0.00000000E+00  0.00000000E+00
  0.00000000E+00  0.00000000E+00  0.00000000E+00
  0.00000000E+00  0.00000000E+00  0.00000000E+00
  0.00000000E+00  0.00000000E+00  0.00000000E+00
  0.00000000E+00  0.00000000E+00  0.00000000E+00
  0.00000000E+00  0.00000000E+00  0.00000000E+00
  0.00000000E+00  0.00000000E+00  0.00000000E+00
  0.00000000E+00  0.00000000E+00  0.00000000E+00
  0.00000000E+00  0.00000000E+00  0.00000000E+00
  0.00000000E+00  0.00000000E+00  0.00000000E+00
  0.00000000E+00  0.00000000E+00  0.00000000E+00
  0.00000000E+00  0.00000000E+00  0.00000000E+00
  0.00000000E+00  0.00000000E+00  0.00000000E+00
  0.00000000E+00  0.00000000E+00  0.00000000E+00
  0.00000000E+00  0.00000000E+00  0.00000000E+00
  0.00000000E+00  0.00000000E+00  0.00000000E+00
  0.00000000E+00  0.00000000E+00  0.00000000E+00
  0.00000000E+00  0.00000000E+00  0.00000000E+00
