FCC Cu                                  
   1.00000000000000     
     5.1335954666000001    0.0000000000000000    0.0000000000000000
     2.5667977333000001    4.4458240868000001    0.0000000000000000
     0.0000000000000000    0.0000000000000000   29.6704711914000008
   Cu   H 
    32     2
Direct
 -0.0000448366922398  0.0002363587265753 -0.0011026442017113
 -0.0001551326021560  0.5003102649510749 -0.0011123610361790
  0.4998084779072293  0.0002363587265753 -0.0011026442017113
  0.4998141056263975  0.5003717887666880 -0.0011087486089925
  0.1668091933825768  0.1663816133712065  0.0681974719862548
  0.1668337723870561  0.6662067772359525  0.0681839814901828
  0.6668440595753423  0.1663118808687914  0.0682381424869909
  0.6669594505912629  0.6662067772359525  0.0681839814901828
  0.3339914581620069  0.3319850015848742  0.1360904630981344
  0.3340550051092361  0.8318899898010037  0.1360861084060163
  0.8340235400777990  0.3319850015848742  0.1360904630981344
  0.8340300867898559  0.8319398263228942  0.1360884696962900
  0.0012720509144252 -0.0026364479835134  0.2044978443750415
  0.0013666714829015  0.4972666567809595  0.2044162623547521
  0.5013643970106536 -0.0026364479835134  0.2044978443750415
  0.5014302058726398  0.4971395882742040  0.2044854050576109
  0.1681223159199357  0.1637553682964885  0.2728321197050135
  0.1680887793321857  0.6634233112508549  0.2727870778396242
  0.6681675793018027  0.1636648414158705  0.2728263545606837
  0.6684879096312306  0.6634233112508549  0.2727870778396242
  0.3352473352383541  0.3298549464753138  0.3412197526451171
  0.3350435001178131  0.8299129997838497  0.3411698762668594
  0.8348977181110124  0.3298549464753138  0.3412197526451171
  0.8348597145272924  0.8302805708480212  0.3412325874602122
  0.0021884331706066 -0.0042922769151872  0.4091582679564524
  0.0021685651623775  0.4956628694220078  0.4090371301508118
  0.5021038436861461 -0.0042922769151872  0.4091582679564524
  0.5021213017712829  0.4957573964769173  0.4091148877230499
  0.1688111711968998  0.1623776577425606  0.4783504385087802
  0.1686411260770373  0.6626386863793726  0.4783566441022053
  0.6686845183683779  0.1626309632827203  0.4784074001132961
  0.6687201877578618  0.6626386863793726  0.4783566441022053
  0.3003165415085456  0.8993669171322578  0.5639218810706386
  0.2689347674097872  0.9621304653297675  0.5876127276924771
 
  0.00000000E+00  0.00000000E+00  0.00000000E+00
  0.00000000E+00  0.00000000E+00  0.00000000E+00
  0.00000000E+00  0.00000000E+00  0.00000000E+00
  0.00000000E+00  0.00000000E+00  0.00000000E+00
  0.00000000E+00  0.00000000E+00  0.00000000E+00
  0.00000000E+00  0.00000000E+00  0.00000000E+00
  0.00000000E+00  0.00000000E+00  0.00000000E+00
  0.00000000E+00  0.00000000E+00  0.00000000E+00
  0.00000000E+00  0.00000000E+00  0.00000000E+00
  0.00000000E+00  0.00000000E+00  0.00000000E+00
  0.00000000E+00  0.00000000E+00  0.00000000E+00
  0.00000000E+00  0.00000000E+00  0.00000000E+00
  0.00000000E+00  0.00000000E+00  0.00000000E+00
  0.00000000E+00  0.00000000E+00  0.00000000E+00
  0.00000000E+00  0.00000000E+00  0.00000000E+00
  0.00000000E+00  0.00000000E+00  0.00000000E+00
  0.00000000E+00  0.00000000E+00  0.00000000E+00
  0.00000000E+00  0.00000000E+00  0.00000000E+00
  0.00000000E+00  0.00000000E+00  0.00000000E+00
  0.00000000E+00  0.00000000E+00  0.00000000E+00
  0.00000000E+00  0.00000000E+00  0.00000000E+00
  0.00000000E+00  0.00000000E+00  0.00000000E+00
  0.00000000E+00  0.00000000E+00  0.00000000E+00
  0.00000000E+00  0.00000000E+00  0.00000000E+00
  0.00000000E+00  0.00000000E+00  0.00000000E+00
  0.00000000E+00  0.00000000E+00  0.00000000E+00
  0.00000000E+00  0.00000000E+00  0.00000000E+00
  0.00000000E+00  0.00000000E+00  0.00000000E+00
  0.00000000E+00  0.00000000E+00  0.00000000E+00
  0.00000000E+00  0.00000000E+00  0.00000000E+00
  0.00000000E+00  0.00000000E+00  0.00000000E+00
  0.00000000E+00  0.00000000E+00  0.00000000E+00
  0.00000000E+00  0.00000000E+00  0.00000000E+00
  0.00000000E+00  0.00000000E+00  0.00000000E+00
