FCC Cu
1.0
2.5667977333         0.0000000000         0.0000000000
1.2833988667         2.2229120434         0.0000000000
0.0000000000         0.0000000000        29.6704711914
Cu H
8 1
Cartesian
0.0     0.0     0.0     F     F     F
1.283398867     0.740970681     2.095781568     F     F     F
2.566797733     1.481941362     4.126745322     F     F     F
0.0     0.0     6.176357075     T     T     T
1.283398867     0.740970681     8.205736584     T     T     T
2.566797733     1.481941362     10.252938079     T     T     T
0.0     0.0     12.283751143     T     T     T
1.283398867     0.740970681     14.283148088     T     T     T
3.8501966003333337 3.704853405 15.851725247699997    T   T   T
