FCC Cu                                  
   1.00000000000000     
     5.1335954666000001    0.0000000000000000    0.0000000000000000
     2.5667977333000001    4.4458240868000001    0.0000000000000000
     0.0000000000000000    0.0000000000000000   29.6704711914000008
   Cu
    32
Selective dynamics
Cartesian
0.0 0.0 0.0
8.713841948938839e-10 2.222912043000014 0.0
3.850196599500028 0.0 0.0
3.850196600371412 2.222912043000014 0.0
1.2833988672904706 0.7409706810000152 2.095781567999961
1.2833988681618556 2.9638827239999976 2.095781567999961
5.133595466790443 0.7409706810000152 2.095781567999961
5.133595467661883 2.9638827239999976 2.095781567999961
2.5667977330809415 1.4819413619999988 4.108476468862126
2.566797733952326 3.704853405000013 4.108476468862126
6.416994332580914 1.4819413619999988 4.108476468862126
6.416994333452354 3.704853405000013 4.108476468862126
-0.0 -0.0 6.1321232294303964
8.713841948938839e-10 2.222912043000014 6.1321232294303964
3.850196599500028 -0.0 6.1321232294303964
3.850196600371412 2.222912043000014 6.1321232294303964
1.2833988672904706 0.7409706810000152 8.156073927381302
1.2833988681618556 2.9638827239999976 8.156073927381302
5.133595466790443 0.7409706810000152 8.156073927381302
5.133595467661883 2.9638827239999976 8.156073927381302
2.5667977330809415 1.4819413619999988 10.182881127553653
2.566797733952326 3.704853405000013 10.182881127553653
6.416994332580914 1.4819413619999988 10.182881127553653
6.416994333452354 3.704853405000013 10.182881127553653
0.0 0.0 12.19629281639124
8.713841948938839e-10 2.222912043000014 12.19629281639124
3.850196599500028 0.0 12.19629281639124
3.850196600371412 2.222912043000014 12.19629281639124
1.2833988672904706 0.7409706810000152 14.257985252663667
1.2833988681618556 2.9638827239999976 14.257985252663667
5.133595466790443 0.7409706810000152 14.257985252663667
5.133595467661883 2.9638827239999976 14.257985252663667
