FCC Cu                                  
   1.00000000000000     
     3.6300001144000000    0.0000000000000000    0.0000000000000000
     0.0000000000000000    3.6300001144000000    0.0000000000000000
     0.0000000000000000    0.0000000000000000   24.0749999999999993
   Cu
    12
Selective dynamics
Direct
  0.0000000000000000  0.0000000000000000  0.0000000000000000   F   F   F
  0.4999999999449045  0.4999999999449045  0.0000000000000000   F   F   F
  0.0000000000000000  0.4999999999449045  0.0753894091796496   F   F   F
  0.4999999999449045  0.0000000000000000  0.0753894091796496   F   F   F
  0.0000000000000000 -0.0000000000000000  0.1463303939020334   T   T   T
  0.4999999999449045  0.4999999999449045  0.1463303939020334   T   T   T
  0.0000000000000000  0.4999999999449045  0.2172192443669610   T   T   T
  0.4999999999449045  0.0000000000000000  0.2172192443669610   T   T   T
 -0.0000000000000000 -0.0000000000000000  0.2881046956709336   T   T   T
  0.4999999999449045  0.4999999999449045  0.2881046956709336   T   T   T
  0.0000000000000000  0.4999999999449045  0.3598056679757810   T   T   T
  0.4999999999449045  0.0000000000000000  0.3598056679757810   T   T   T
 
  0.00000000E+00  0.00000000E+00  0.00000000E+00
  0.00000000E+00  0.00000000E+00  0.00000000E+00
  0.00000000E+00  0.00000000E+00  0.00000000E+00
  0.00000000E+00  0.00000000E+00  0.00000000E+00
  0.00000000E+00  0.00000000E+00  0.00000000E+00
  0.00000000E+00  0.00000000E+00  0.00000000E+00
  0.00000000E+00  0.00000000E+00  0.00000000E+00
  0.00000000E+00  0.00000000E+00  0.00000000E+00
  0.00000000E+00  0.00000000E+00  0.00000000E+00
  0.00000000E+00  0.00000000E+00  0.00000000E+00
  0.00000000E+00  0.00000000E+00  0.00000000E+00
  0.00000000E+00  0.00000000E+00  0.00000000E+00
