FCC Cu                                  
1.0
        3.6300001144         0.0000000000         0.0000000000
        0.0000000000         3.6300001144         0.0000000000
        0.0000000000         0.0000000000        24.0750007629
   Cu
   12
Cartesian
     0.000000000         0.000000000         0.000000000
     1.815000057         1.815000057         0.000000000
     0.000000000         1.815000057         1.815000084
     1.815000057         0.000000000         1.815000084
     0.000000000         0.000000000         3.522904345
     1.815000057         1.815000057         3.522904345
     0.000000000         1.815000057         5.229553474
     1.815000057         0.000000000         5.229553474
     0.000000000         0.000000000         6.936120768
     1.815000057         1.815000057         6.936120768
     0.000000000         1.815000057         8.662321731
     1.815000057         0.000000000         8.662321731
