FCC Cu                                  
   1.00000000000000     
    10.8900003433000006    0.0000000000000000    0.0000000000000000
     0.0000000000000000   10.8900003433000006    0.0000000000000000
     0.0000000000000000    0.0000000000000000   27.7049999237000009
   Cu
   144
Selective dynamics
Direct
  0.0000000000000000  0.0000000000000000  0.0000000000000000   F   F   F
  0.0000000000000000  0.3333333332935382  0.0000000000000000   F   F   F
  0.0000000000000000  0.6666666666789069  0.0000000000000000   F   F   F
  0.3333333332935382  0.0000000000000000  0.0000000000000000   F   F   F
  0.3333333332935382  0.3333333332935382  0.0000000000000000   F   F   F
  0.3333333332935382  0.6666666666789069  0.0000000000000000   F   F   F
  0.6666666666789069  0.0000000000000000  0.0000000000000000   F   F   F
  0.6666666666789069  0.3333333332935382  0.0000000000000000   F   F   F
  0.6666666666789069  0.6666666666789069  0.0000000000000000   F   F   F
  0.1666666666467691  0.1666666666467691  0.0000000000000000   F   F   F
  0.1666666666467691  0.4999999999403144  0.0000000000000000   F   F   F
  0.1666666666467691  0.8333333333256832  0.0000000000000000   F   F   F
  0.4999999999403144  0.1666666666467691  0.0000000000000000   F   F   F
  0.4999999999403144  0.4999999999403144  0.0000000000000000   F   F   F
  0.4999999999403144  0.8333333333256832  0.0000000000000000   F   F   F
  0.8333333333256832  0.1666666666467691  0.0000000000000000   F   F   F
  0.8333333333256832  0.4999999999403144  0.0000000000000000   F   F   F
  0.8333333333256832  0.8333333333256832  0.0000000000000000   F   F   F
  0.0000000000000000  0.1666666666467691  0.0655116416169861   F   F   F
  0.0000000000000000  0.4999999999403144  0.0655116416169861   F   F   F
  0.0000000000000000  0.8333333333256832  0.0655116416169861   F   F   F
  0.3333333332935382  0.1666666666467691  0.0655116416169861   F   F   F
  0.3333333332935382  0.4999999999403144  0.0655116416169861   F   F   F
  0.3333333332935382  0.8333333333256832  0.0655116416169861   F   F   F
  0.6666666666789069  0.1666666666467691  0.0655116416169861   F   F   F
  0.6666666666789069  0.4999999999403144  0.0655116416169861   F   F   F
  0.6666666666789069  0.8333333333256832  0.0655116416169861   F   F   F
  0.1666666666467691  0.0000000000000000  0.0655116416169861   F   F   F
  0.1666666666467691  0.3333333332935382  0.0655116416169861   F   F   F
  0.1666666666467691  0.6666666666789069  0.0655116416169861   F   F   F
  0.4999999999403144  0.0000000000000000  0.0655116416169861   F   F   F
  0.4999999999403144  0.3333333332935382  0.0655116416169861   F   F   F
  0.4999999999403144  0.6666666666789069  0.0655116416169861   F   F   F
  0.8333333333256832  0.0000000000000000  0.0655116416169861   F   F   F
  0.8333333333256832  0.3333333332935382  0.0655116416169861   F   F   F
  0.8333333333256832  0.6666666666789069  0.0655116416169861   F   F   F
  0.0000000000000000  0.0000000000000000  0.1311955341119257   T   T   T
 -0.0000000000000000  0.3333333332935382  0.1311955341119257   T   T   T
  0.0000000000000000  0.6666666666789069  0.1311955341119257   T   T   T
  0.3333333332935382 -0.0000000000000000  0.1311955341119257   T   T   T
  0.3333333332935382  0.3333333332935382  0.1311955341119257   T   T   T
  0.3333333332935382  0.6666666666789069  0.1311955341119257   T   T   T
  0.6666666666789069  0.0000000000000000  0.1311955341119257   T   T   T
  0.6666666666789069  0.3333333332935382  0.1311955341119257   T   T   T
  0.6666666666789069  0.6666666666789069  0.1311955341119257   T   T   T
  0.1666666666467691  0.1666666666467691  0.1311955341119257   T   T   T
  0.1666666666467691  0.4999999999403144  0.1311955341119257   T   T   T
  0.1666666666467691  0.8333333333256832  0.1311955341119257   T   T   T
  0.4999999999403144  0.1666666666467691  0.1311955341119257   T   T   T
  0.4999999999403144  0.4999999999403144  0.1311955341119257   T   T   T
  0.4999999999403144  0.8333333333256832  0.1311955341119257   T   T   T
  0.8333333333256832  0.1666666666467691  0.1311955341119257   T   T   T
  0.8333333333256832  0.4999999999403144  0.1311955341119257   T   T   T
  0.8333333333256832  0.8333333333256832  0.1311955341119257   T   T   T
 -0.0000000000000000  0.1666666666467691  0.1962067967023661   T   T   T
 -0.0000000000000000  0.4999999999403144  0.1962067967023661   T   T   T
 -0.0000000000000000  0.8333333333256832  0.1962067967023661   T   T   T
  0.3333333332935382  0.1666666666467691  0.1962067967023661   T   T   T
  0.3333333332935382  0.4999999999403144  0.1962067967023661   T   T   T
  0.3333333332935382  0.8333333333256832  0.1962067967023661   T   T   T
  0.6666666666789069  0.1666666666467691  0.1962067967023661   T   T   T
  0.6666666666789069  0.4999999999403144  0.1962067967023661   T   T   T
  0.6666666666789069  0.8333333333256832  0.1962067967023661   T   T   T
  0.1666666666467691  0.0000000000000000  0.1962067967023661   T   T   T
  0.1666666666467691  0.3333333332935382  0.1962067967023661   T   T   T
  0.1666666666467691  0.6666666666789069  0.1962067967023661   T   T   T
  0.4999999999403144 -0.0000000000000000  0.1962067967023661   T   T   T
  0.4999999999403144  0.3333333332935382  0.1962067967023661   T   T   T
  0.4999999999403144  0.6666666666789069  0.1962067967023661   T   T   T
  0.8333333333256832 -0.0000000000000000  0.1962067967023661   T   T   T
  0.8333333333256832  0.3333333332935382  0.1962067967023661   T   T   T
  0.8333333333256832  0.6666666666789069  0.1962067967023661   T   T   T
  0.0000000000000000  0.0000000000000000  0.2587385974490196   T   T   T
 -0.0000000000000000  0.3333333332935382  0.2587385974490196   T   T   T
 -0.0000000000000000  0.6666666666789069  0.2587385974490196   T   T   T
  0.3333333332935382  0.0000000000000000  0.2587385974490196   T   T   T
  0.3333333332935382  0.3333333332935382  0.2587385974490196   T   T   T
  0.3333333332935382  0.6666666666789069  0.2587385974490196   T   T   T
  0.6666666666789069 -0.0000000000000000  0.2587385974490196   T   T   T
  0.6666666666789069  0.3333333332935382  0.2587385974490196   T   T   T
  0.6666666666789069  0.6666666666789069  0.2587385974490196   T   T   T
  0.1666666666467691  0.1666666666467691  0.2587385974490196   T   T   T
  0.1666666666467691  0.4999999999403144  0.2587385974490196   T   T   T
  0.1666666666467691  0.8333333333256832  0.2587385974490196   T   T   T
  0.4999999999403144  0.1666666666467691  0.2587385974490196   T   T   T
  0.4999999999403144  0.4999999999403144  0.2587385974490196   T   T   T
  0.4999999999403144  0.8333333333256832  0.2587385974490196   T   T   T
  0.8333333333256832  0.1666666666467691  0.2587385974490196   T   T   T
  0.8333333333256832  0.4999999999403144  0.2587385974490196   T   T   T
  0.8333333333256832  0.8333333333256832  0.2587385974490196   T   T   T
  0.0000000000000000  0.1666666666467691  0.3211995436352190   T   T   T
  0.0000000000000000  0.4999999999403144  0.3211995436352190   T   T   T
  0.0000000000000000  0.8333333333256832  0.3211995436352190   T   T   T
  0.3333333332935382  0.1666666666467691  0.3211995436352190   T   T   T
  0.3333333332935382  0.4999999999403144  0.3211995436352190   T   T   T
  0.3333333332935382  0.8333333333256832  0.3211995436352190   T   T   T
  0.6666666666789069  0.1666666666467691  0.3211995436352190   T   T   T
  0.6666666666789069  0.4999999999403144  0.3211995436352190   T   T   T
  0.6666666666789069  0.8333333333256832  0.3211995436352190   T   T   T
  0.1666666666467691 -0.0000000000000000  0.3211995436352190   T   T   T
  0.1666666666467691  0.3333333332935382  0.3211995436352190   T   T   T
  0.1666666666467691  0.6666666666789069  0.3211995436352190   T   T   T
  0.4999999999403144 -0.0000000000000000  0.3211995436352190   T   T   T
  0.4999999999403144  0.3333333332935382  0.3211995436352190   T   T   T
  0.4999999999403144  0.6666666666789069  0.3211995436352190   T   T   T
  0.8333333333256832  0.0000000000000000  0.3211995436352190   T   T   T
  0.8333333333256832  0.3333333332935382  0.3211995436352190   T   T   T
  0.8333333333256832  0.6666666666789069  0.3211995436352190   T   T   T
 -0.0000000000000000  0.0000000000000000  0.3847637163058614   T   T   T
 -0.0000000000000000  0.3333333332935382  0.3847637163058614   T   T   T
 -0.0000000000000000  0.6666666666789069  0.3847637163058614   T   T   T
  0.3333333332935382 -0.0000000000000000  0.3847637163058614   T   T   T
  0.3333333332935382  0.3333333332935382  0.3847637163058614   T   T   T
  0.3333333332935382  0.6666666666789069  0.3847637163058614   T   T   T
  0.6666666666789069  0.0000000000000000  0.3847637163058614   T   T   T
  0.6666666666789069  0.3333333332935382  0.3847637163058614   T   T   T
  0.6666666666789069  0.6666666666789069  0.3847637163058614   T   T   T
  0.1666666666467691  0.1666666666467691  0.3847637163058614   T   T   T
  0.1666666666467691  0.4999999999403144  0.3847637163058614   T   T   T
  0.1666666666467691  0.8333333333256832  0.3847637163058614   T   T   T
  0.4999999999403144  0.1666666666467691  0.3847637163058614   T   T   T
  0.4999999999403144  0.4999999999403144  0.3847637163058614   T   T   T
  0.4999999999403144  0.8333333333256832  0.3847637163058614   T   T   T
  0.8333333333256832  0.1666666666467691  0.3847637163058614   T   T   T
  0.8333333333256832  0.4999999999403144  0.3847637163058614   T   T   T
  0.8333333333256832  0.8333333333256832  0.3847637163058614   T   T   T
  0.0000000000000000  0.1666666666467691  0.4473647275632811   T   T   T
  0.0000000000000000  0.4999999999403144  0.4473647275632811   T   T   T
  0.0000000000000000  0.8333333333256832  0.4473647275632811   T   T   T
  0.3333333332935382  0.1666666666467691  0.4473647275632811   T   T   T
  0.3333333332935382  0.4999999999403144  0.4473647275632811   T   T   T
  0.3333333332935382  0.8333333333256832  0.4473647275632811   T   T   T
  0.6666666666789069  0.1666666666467691  0.4473647275632811   T   T   T
  0.6666666666789069  0.4999999999403144  0.4473647275632811   T   T   T
  0.6666666666789069  0.8333333333256832  0.4473647275632811   T   T   T
  0.1666666666467691  0.0000000000000000  0.4473647275632811   T   T   T
  0.1666666666467691  0.3333333332935382  0.4473647275632811   T   T   T
  0.1666666666467691  0.6666666666789069  0.4473647275632811   T   T   T
  0.4999999999403144  0.0000000000000000  0.4473647275632811   T   T   T
  0.4999999999403144  0.3333333332935382  0.4473647275632811   T   T   T
  0.4999999999403144  0.6666666666789069  0.4473647275632811   T   T   T
  0.8333333333256832 -0.0000000000000000  0.4473647275632811   T   T   T
  0.8333333333256832  0.3333333332935382  0.4473647275632811   T   T   T
  0.8333333333256832  0.6666666666789069  0.4473647275632811   T   T   T
 
  0.00000000E+00  0.00000000E+00  0.00000000E+00
  0.00000000E+00  0.00000000E+00  0.00000000E+00
  0.00000000E+00  0.00000000E+00  0.00000000E+00
  0.00000000E+00  0.00000000E+00  0.00000000E+00
  0.00000000E+00  0.00000000E+00  0.00000000E+00
  0.00000000E+00  0.00000000E+00  0.00000000E+00
  0.00000000E+00  0.00000000E+00  0.00000000E+00
  0.00000000E+00  0.00000000E+00  0.00000000E+00
  0.00000000E+00  0.00000000E+00  0.00000000E+00
  0.00000000E+00  0.00000000E+00  0.00000000E+00
  0.00000000E+00  0.00000000E+00  0.00000000E+00
  0.00000000E+00  0.00000000E+00  0.00000000E+00
  0.00000000E+00  0.00000000E+00  0.00000000E+00
  0.00000000E+00  0.00000000E+00  0.00000000E+00
  0.00000000E+00  0.00000000E+00  0.00000000E+00
  0.00000000E+00  0.00000000E+00  0.00000000E+00
  0.00000000E+00  0.00000000E+00  0.00000000E+00
  0.00000000E+00  0.00000000E+00  0.00000000E+00
  0.00000000E+00  0.00000000E+00  0.00000000E+00
  0.00000000E+00  0.00000000E+00  0.00000000E+00
  0.00000000E+00  0.00000000E+00  0.00000000E+00
  0.00000000E+00  0.00000000E+00  0.00000000E+00
  0.00000000E+00  0.00000000E+00  0.00000000E+00
  0.00000000E+00  0.00000000E+00  0.00000000E+00
  0.00000000E+00  0.00000000E+00  0.00000000E+00
  0.00000000E+00  0.00000000E+00  0.00000000E+00
  0.00000000E+00  0.00000000E+00  0.00000000E+00
  0.00000000E+00  0.00000000E+00  0.00000000E+00
  0.00000000E+00  0.00000000E+00  0.00000000E+00
  0.00000000E+00  0.00000000E+00  0.00000000E+00
  0.00000000E+00  0.00000000E+00  0.00000000E+00
  0.00000000E+00  0.00000000E+00  0.00000000E+00
  0.00000000E+00  0.00000000E+00  0.00000000E+00
  0.00000000E+00  0.00000000E+00  0.00000000E+00
  0.00000000E+00  0.00000000E+00  0.00000000E+00
  0.00000000E+00  0.00000000E+00  0.00000000E+00
  0.00000000E+00  0.00000000E+00  0.00000000E+00
  0.00000000E+00  0.00000000E+00  0.00000000E+00
  0.00000000E+00  0.00000000E+00  0.00000000E+00
  0.00000000E+00  0.00000000E+00  0.00000000E+00
  0.00000000E+00  0.00000000E+00  0.00000000E+00
  0.00000000E+00  0.00000000E+00  0.00000000E+00
  0.00000000E+00  0.00000000E+00  0.00000000E+00
  0.00000000E+00  0.00000000E+00  0.00000000E+00
  0.00000000E+00  0.00000000E+00  0.00000000E+00
  0.00000000E+00  0.00000000E+00  0.00000000E+00
  0.00000000E+00  0.00000000E+00  0.00000000E+00
  0.00000000E+00  0.00000000E+00  0.00000000E+00
  0.00000000E+00  0.00000000E+00  0.00000000E+00
  0.00000000E+00  0.00000000E+00  0.00000000E+00
  0.00000000E+00  0.00000000E+00  0.00000000E+00
  0.00000000E+00  0.00000000E+00  0.00000000E+00
  0.00000000E+00  0.00000000E+00  0.00000000E+00
  0.00000000E+00  0.00000000E+00  0.00000000E+00
  0.00000000E+00  0.00000000E+00  0.00000000E+00
  0.00000000E+00  0.00000000E+00  0.00000000E+00
  0.00000000E+00  0.00000000E+00  0.00000000E+00
  0.00000000E+00  0.00000000E+00  0.00000000E+00
  0.00000000E+00  0.00000000E+00  0.00000000E+00
  0.00000000E+00  0.00000000E+00  0.00000000E+00
  0.00000000E+00  0.00000000E+00  0.00000000E+00
  0.00000000E+00  0.00000000E+00  0.00000000E+00
  0.00000000E+00  0.00000000E+00  0.00000000E+00
  0.00000000E+00  0.00000000E+00  0.00000000E+00
  0.00000000E+00  0.00000000E+00  0.00000000E+00
  0.00000000E+00  0.00000000E+00  0.00000000E+00
  0.00000000E+00  0.00000000E+00  0.00000000E+00
  0.00000000E+00  0.00000000E+00  0.00000000E+00
  0.00000000E+00  0.00000000E+00  0.00000000E+00
  0.00000000E+00  0.00000000E+00  0.00000000E+00
  0.00000000E+00  0.00000000E+00  0.00000000E+00
  0.00000000E+00  0.00000000E+00  0.00000000E+00
  0.00000000E+00  0.00000000E+00  0.00000000E+00
  0.00000000E+00  0.00000000E+00  0.00000000E+00
  0.00000000E+00  0.00000000E+00  0.00000000E+00
  0.00000000E+00  0.00000000E+00  0.00000000E+00
  0.00000000E+00  0.00000000E+00  0.00000000E+00
  0.00000000E+00  0.00000000E+00  0.00000000E+00
  0.00000000E+00  0.00000000E+00  0.00000000E+00
  0.00000000E+00  0.00000000E+00  0.00000000E+00
  0.00000000E+00  0.00000000E+00  0.00000000E+00
  0.00000000E+00  0.00000000E+00  0.00000000E+00
  0.00000000E+00  0.00000000E+00  0.00000000E+00
  0.00000000E+00  0.00000000E+00  0.00000000E+00
  0.00000000E+00  0.00000000E+00  0.00000000E+00
  0.00000000E+00  0.00000000E+00  0.00000000E+00
  0.00000000E+00  0.00000000E+00  0.00000000E+00
  0.00000000E+00  0.00000000E+00  0.00000000E+00
  0.00000000E+00  0.00000000E+00  0.00000000E+00
  0.00000000E+00  0.00000000E+00  0.00000000E+00
  0.00000000E+00  0.00000000E+00  0.00000000E+00
  0.00000000E+00  0.00000000E+00  0.00000000E+00
  0.00000000E+00  0.00000000E+00  0.00000000E+00
  0.00000000E+00  0.00000000E+00  0.00000000E+00
  0.00000000E+00  0.00000000E+00  0.00000000E+00
  0.00000000E+00  0.00000000E+00  0.00000000E+00
  0.00000000E+00  0.00000000E+00  0.00000000E+00
  0.00000000E+00  0.00000000E+00  0.00000000E+00
  0.00000000E+00  0.00000000E+00  0.00000000E+00
  0.00000000E+00  0.00000000E+00  0.00000000E+00
  0.00000000E+00  0.00000000E+00  0.00000000E+00
  0.00000000E+00  0.00000000E+00  0.00000000E+00
  0.00000000E+00  0.00000000E+00  0.00000000E+00
  0.00000000E+00  0.00000000E+00  0.00000000E+00
  0.00000000E+00  0.00000000E+00  0.00000000E+00
  0.00000000E+00  0.00000000E+00  0.00000000E+00
  0.00000000E+00  0.00000000E+00  0.00000000E+00
  0.00000000E+00  0.00000000E+00  0.00000000E+00
  0.00000000E+00  0.00000000E+00  0.00000000E+00
  0.00000000E+00  0.00000000E+00  0.00000000E+00
  0.00000000E+00  0.00000000E+00  0.00000000E+00
  0.00000000E+00  0.00000000E+00  0.00000000E+00
  0.00000000E+00  0.00000000E+00  0.00000000E+00
  0.00000000E+00  0.00000000E+00  0.00000000E+00
  0.00000000E+00  0.00000000E+00  0.00000000E+00
  0.00000000E+00  0.00000000E+00  0.00000000E+00
  0.00000000E+00  0.00000000E+00  0.00000000E+00
  0.00000000E+00  0.00000000E+00  0.00000000E+00
  0.00000000E+00  0.00000000E+00  0.00000000E+00
  0.00000000E+00  0.00000000E+00  0.00000000E+00
  0.00000000E+00  0.00000000E+00  0.00000000E+00
  0.00000000E+00  0.00000000E+00  0.00000000E+00
  0.00000000E+00  0.00000000E+00  0.00000000E+00
  0.00000000E+00  0.00000000E+00  0.00000000E+00
  0.00000000E+00  0.00000000E+00  0.00000000E+00
  0.00000000E+00  0.00000000E+00  0.00000000E+00
  0.00000000E+00  0.00000000E+00  0.00000000E+00
  0.00000000E+00  0.00000000E+00  0.00000000E+00
  0.00000000E+00  0.00000000E+00  0.00000000E+00
  0.00000000E+00  0.00000000E+00  0.00000000E+00
  0.00000000E+00  0.00000000E+00  0.00000000E+00
  0.00000000E+00  0.00000000E+00  0.00000000E+00
  0.00000000E+00  0.00000000E+00  0.00000000E+00
  0.00000000E+00  0.00000000E+00  0.00000000E+00
  0.00000000E+00  0.00000000E+00  0.00000000E+00
  0.00000000E+00  0.00000000E+00  0.00000000E+00
  0.00000000E+00  0.00000000E+00  0.00000000E+00
  0.00000000E+00  0.00000000E+00  0.00000000E+00
  0.00000000E+00  0.00000000E+00  0.00000000E+00
  0.00000000E+00  0.00000000E+00  0.00000000E+00
  0.00000000E+00  0.00000000E+00  0.00000000E+00
  0.00000000E+00  0.00000000E+00  0.00000000E+00
  0.00000000E+00  0.00000000E+00  0.00000000E+00
  0.00000000E+00  0.00000000E+00  0.00000000E+00
