FCC Cu                                  
   1.00000000000000     
     7.2600002289000001    0.0000000000000000    0.0000000000000000
     0.0000000000000000    7.2600002289000001    0.0000000000000000
     0.0000000000000000    0.0000000000000000   27.7049999237000009
   Cu   H 
    64     2
Direct
  0.0000000000000000  0.0004193805131734  0.0080592892606067
  0.0000000000000000  0.5007766086598731  0.0080612699793026
  0.4999999999380194  0.0007364910757067  0.0080127763811039
  0.4999999999380194  0.5004764416896967  0.0080213827556278
  0.2502488539449502  0.2505860081477272  0.0080283933967157
  0.2498970087762106  0.7506144703683255  0.0080293379312804
  0.7497511459310814  0.2505860081477272  0.0080283933967157
  0.7501029910998210  0.7506144703683255  0.0080293379312804
  0.0000000000000000  0.2506324774153409  0.0704757622943242
  0.0000000000000000  0.7506461543641191  0.0703549446216090
  0.4999999999380194  0.2506172276277530  0.0703750640982997
  0.4999999999380194  0.7505596753280998  0.0705623114343197
  0.2500646277197199  0.0005816296948760  0.0703925320106978
  0.2500946587756750  0.5006662307351015  0.0704019230827709
  0.7499353721563118  0.0005816296948760  0.0703925320106978
  0.7499053411003568  0.5006662307351015  0.0704019230827709
  0.0000000000000000  0.0004156359462671  0.1341342191724176
  0.0000000000000000  0.5010473562864249  0.1341554517648000
  0.4999999999380194  0.0009514905361071  0.1340919523676963
  0.4999999999380194  0.5004179736955930  0.1341251327938401
  0.2503106179906747  0.2506533333904174  0.1341466154001109
  0.2497779767519772  0.7506700061889948  0.1340714721229321
  0.7496893818853566  0.2506533333904174  0.1341466154001109
  0.7502220231240541  0.7506700061889948  0.1340714721229321
  0.0000000000000000  0.2507130170987418  0.1968104518236686
  0.0000000000000000  0.7508195876771951  0.1973044397037987
  0.4999999999380194  0.2506781807207364  0.1973299014107914
  0.4999999999380194  0.7508136563977503  0.1969762524858164
  0.2504401340430213  0.0003341320342082  0.1970050124467456
  0.2504062563190523  0.5012094801372972  0.1970096778970849
  0.7495598658330107  0.0003341320342082  0.1970050124467456
  0.7495937435569795  0.5012094801372972  0.1970096778970849
  0.0000000000000000  0.0011997247009570  0.2595637033876795
  0.0000000000000000  0.5005228072700694  0.2595801672086682
  0.4999999999380194  0.0008270784017694  0.2599200084952124
  0.4999999999380194  0.5011208164298802  0.2598382809124886
  0.2497128440772168  0.2509212312086807  0.2595258274422170
  0.2501796087095922  0.7508599516498278  0.2598376089038356
  0.7502871557988151  0.2509212312086807  0.2595258274422170
  0.7498203911664396  0.7508599516498278  0.2598376089038356
  0.0000000000000000  0.2511321631884432  0.3226766882132910
  0.0000000000000000  0.7508976148821510  0.3226712826930557
  0.4999999999380194  0.2514631044035793  0.3228093905904011
  0.4999999999380194  0.7509929219406847  0.3228791927839122
  0.2499936086781168  0.0011013744846635  0.3225575872723269
  0.2500895464454683  0.5010117074105170  0.3226196381043609
  0.7500063911979148  0.0011013744846635  0.3225575872723269
  0.7499104534305632  0.5010117074105170  0.3226196381043609
  0.0000000000000000  0.0008968637082156  0.3859854917295945
  0.0000000000000000  0.5015099401794708  0.3861409331248363
  0.4999999999380194  0.0001119028184091  0.3866744845746951
  0.4999999999380194  0.5030495503680522  0.3869575749217425
  0.2504032220642733  0.2514316320020532  0.3860256106750810
  0.2514389918004268  0.7511638080788346  0.3866707158345137
  0.7495967778117583  0.2514316320020532  0.3860256106750810
  0.7485610080756049  0.7511638080788346  0.3866707158345137
  0.0000000000000000  0.2516175394233007  0.4484134836053839
  0.0000000000000000  0.7514296773091920  0.4482634489975989
  0.4999999999380194  0.2514752949477200  0.4486642872446107
  0.4999999999380194  0.7514099543224596  0.4511125342173044
  0.2477253815771225  0.0042049954313647  0.4482333339252551
  0.2484276146192512  0.4991898353420639  0.4485819643296256
  0.7522746182989091  0.0042049954313647  0.4482333339252551
  0.7515723852567812  0.4991898353420639  0.4485819643296256
  0.4999999999380123  0.7154273587328643  0.5140397045624717
  0.4999999999380123  0.8265494938660543  0.5115362340576961
 
  0.00000000E+00  0.00000000E+00  0.00000000E+00
  0.00000000E+00  0.00000000E+00  0.00000000E+00
  0.00000000E+00  0.00000000E+00  0.00000000E+00
  0.00000000E+00  0.00000000E+00  0.00000000E+00
  0.00000000E+00  0.00000000E+00  0.00000000E+00
  0.00000000E+00  0.00000000E+00  0.00000000E+00
  0.00000000E+00  0.00000000E+00  0.00000000E+00
  0.00000000E+00  0.00000000E+00  0.00000000E+00
  0.00000000E+00  0.00000000E+00  0.00000000E+00
  0.00000000E+00  0.00000000E+00  0.00000000E+00
  0.00000000E+00  0.00000000E+00  0.00000000E+00
  0.00000000E+00  0.00000000E+00  0.00000000E+00
  0.00000000E+00  0.00000000E+00  0.00000000E+00
  0.00000000E+00  0.00000000E+00  0.00000000E+00
  0.00000000E+00  0.00000000E+00  0.00000000E+00
  0.00000000E+00  0.00000000E+00  0.00000000E+00
  0.00000000E+00  0.00000000E+00  0.00000000E+00
  0.00000000E+00  0.00000000E+00  0.00000000E+00
  0.00000000E+00  0.00000000E+00  0.00000000E+00
  0.00000000E+00  0.00000000E+00  0.00000000E+00
  0.00000000E+00  0.00000000E+00  0.00000000E+00
  0.00000000E+00  0.00000000E+00  0.00000000E+00
  0.00000000E+00  0.00000000E+00  0.00000000E+00
  0.00000000E+00  0.00000000E+00  0.00000000E+00
  0.00000000E+00  0.00000000E+00  0.00000000E+00
  0.00000000E+00  0.00000000E+00  0.00000000E+00
  0.00000000E+00  0.00000000E+00  0.00000000E+00
  0.00000000E+00  0.00000000E+00  0.00000000E+00
  0.00000000E+00  0.00000000E+00  0.00000000E+00
  0.00000000E+00  0.00000000E+00  0.00000000E+00
  0.00000000E+00  0.00000000E+00  0.00000000E+00
  0.00000000E+00  0.00000000E+00  0.00000000E+00
  0.00000000E+00  0.00000000E+00  0.00000000E+00
  0.00000000E+00  0.00000000E+00  0.00000000E+00
  0.00000000E+00  0.00000000E+00  0.00000000E+00
  0.00000000E+00  0.00000000E+00  0.00000000E+00
  0.00000000E+00  0.00000000E+00  0.00000000E+00
  0.00000000E+00  0.00000000E+00  0.00000000E+00
  0.00000000E+00  0.00000000E+00  0.00000000E+00
  0.00000000E+00  0.00000000E+00  0.00000000E+00
  0.00000000E+00  0.00000000E+00  0.00000000E+00
  0.00000000E+00  0.00000000E+00  0.00000000E+00
  0.00000000E+00  0.00000000E+00  0.00000000E+00
  0.00000000E+00  0.00000000E+00  0.00000000E+00
  0.00000000E+00  0.00000000E+00  0.00000000E+00
  0.00000000E+00  0.00000000E+00  0.00000000E+00
  0.00000000E+00  0.00000000E+00  0.00000000E+00
  0.00000000E+00  0.00000000E+00  0.00000000E+00
  0.00000000E+00  0.00000000E+00  0.00000000E+00
  0.00000000E+00  0.00000000E+00  0.00000000E+00
  0.00000000E+00  0.00000000E+00  0.00000000E+00
  0.00000000E+00  0.00000000E+00  0.00000000E+00
  0.00000000E+00  0.00000000E+00  0.00000000E+00
  0.00000000E+00  0.00000000E+00  0.00000000E+00
  0.00000000E+00  0.00000000E+00  0.00000000E+00
  0.00000000E+00  0.00000000E+00  0.00000000E+00
  0.00000000E+00  0.00000000E+00  0.00000000E+00
  0.00000000E+00  0.00000000E+00  0.00000000E+00
  0.00000000E+00  0.00000000E+00  0.00000000E+00
  0.00000000E+00  0.00000000E+00  0.00000000E+00
  0.00000000E+00  0.00000000E+00  0.00000000E+00
  0.00000000E+00  0.00000000E+00  0.00000000E+00
  0.00000000E+00  0.00000000E+00  0.00000000E+00
  0.00000000E+00  0.00000000E+00  0.00000000E+00
  0.00000000E+00  0.00000000E+00  0.00000000E+00
  0.00000000E+00  0.00000000E+00  0.00000000E+00
