FCC Cu                                  
   1.00000000000000     
     3.6300001144000000    0.0000000000000000    0.0000000000000000
     0.0000000000000000    2.5667977333000001    0.0000000000000000
     0.0000000000000000    0.0000000000000000   20.1335949999999997
   Cu
     5
Selective dynamics
Direct
  0.0000000000000000  0.0000000000000000  0.0000000000000000   F   F   F
  0.4999999999449045  0.5000000001363532  0.0637441483748944   F   F   F
  0.0000000000000000  0.0000000000000000  0.1241800828953610   T   T   T
  0.4999999999449045  0.5000000001363532  0.1911483203661132   T   T   T
  0.0000000000000000  0.0000000000000000  0.2453635642646743   T   T   T
 
  0.00000000E+00  0.00000000E+00  0.00000000E+00
  0.00000000E+00  0.00000000E+00  0.00000000E+00
  0.00000000E+00  0.00000000E+00  0.00000000E+00
  0.00000000E+00  0.00000000E+00  0.00000000E+00
  0.00000000E+00  0.00000000E+00  0.00000000E+00
