FCC Cu
1.0
        3.6300001144         0.0000000000         0.0000000000
        0.0000000000         2.5667977333         0.0000000000
0.0000000000 0.0000000000 20.133595
   Cu
5
Selective dynamics
Cartesian
0	0	0	F	F	F
1.815000057	1.283398867	1.283398867	F	F	F
0	0	2.566797733	T	T	T
1.815000057	1.283398867	3.8501966	T	T	T
0	0	5.133595467	T	T	T



