FCC Cu                                  
1.0
        3.6300001144         0.0000000000         0.0000000000
        0.0000000000         2.5667977333         0.0000000000
        0.0000000000         0.0000000000        20.1335945129
   Cu
    5
Cartesian
     0.000000000         0.000000000         0.000000000
     1.815000057         1.283398867         1.283398836
     0.000000000         0.000000000         2.500191436
     1.815000057         1.283398867         3.848502774
     0.000000000         0.000000000         4.940050511
