FCC Cu                                  
   1.00000000000000     
     7.2600002289000001    0.0000000000000000    0.0000000000000000
     0.0000000000000000    5.1335954666000001    0.0000000000000000
     0.0000000000000000    0.0000000000000000   23.9837913512999990
   Cu   H 
    32     2
Selective dynamics
Direct
  0.0000000000000000  0.0000000000000000  0.0000000000000000   F   F   F
  0.0000000000000000  0.4999999999415579  0.0000000000000000   F   F   F
  0.4999999999380194  0.0000000000000000  0.0000000000000000   F   F   F
  0.4999999999380194  0.4999999999415579  0.0000000000000000   F   F   F
  0.2499999999690061  0.2500000000681766  0.0535110904777980   F   F   F
  0.2499999999690061  0.7500000000097415  0.0535110904777980   F   F   F
  0.7499999999070255  0.2500000000681766  0.0535110904777980   F   F   F
  0.7499999999070255  0.7500000000097415  0.0535110904777980   F   F   F
  0.0000000000000000  0.0000000000000000  0.1054137052072122   F   F   F
  0.0000000000000000  0.4999999999415579  0.1054137052072122   F   F   F
  0.4999999999380194  0.0000000000000000  0.1054137052072122   F   F   F
  0.4999999999380194  0.4999999999415579  0.1054137052072122   F   F   F
  0.2499999999690061  0.2468496812074403  0.1568376156162606   T   T   T
  0.2499999999690061  0.7465994946734424  0.1570512745782288   T   T   T
  0.7499999999070255  0.2463282361199632  0.1573605456523883   T   T   T
  0.7499999999070255  0.7463238667912749  0.1577938257347734   T   T   T
 -0.0001023260968914 -0.0065433831636638  0.2084821591570816   T   T   T
 -0.0001431701747814  0.4938128493400494  0.2085122524352536   T   T   T
  0.5001023260349108 -0.0065433831636638  0.2084821591570816   T   T   T
  0.5001431701128006  0.4938128493400494  0.2085122524352536   T   T   T
  0.2499999999690061  0.2414843526887936  0.2588421323105137   T   T   T
  0.2499999999690061  0.7417102915037743  0.2589723044924525   T   T   T
  0.7499999999070255  0.2413456236243273  0.2594076758697760   T   T   T
  0.7499999999070255  0.7412721163307241  0.2612399597108031   T   T   T
  0.0007872144867984 -0.0096109635731629  0.3135913197652876   T   T   T
  0.0006190565731858  0.4898758945923056  0.3135501168866713   T   T   T
  0.4992127854512209 -0.0096109635731629  0.3135913197652876   T   T   T
  0.4993809433648336  0.4898758945923056  0.3135501168866713   T   T   T
  0.2499999999690061  0.2393094272518968  0.3615032009723974   T   T   T
  0.2499999999690061  0.7392927060824482  0.3611660501374938   T   T   T
  0.7499999999070255  0.2398915816124419  0.3605938345679575   T   T   T
  0.7499999999070255  0.7407510845000430  0.3635262891402147   T   T   T
  0.7499999999070255  0.6632645041831182  0.4344338073779085   T   T   T
  0.7499999999070255  0.8213198197709146  0.4344074066074683   T   T   T
 
  0.00000000E+00  0.00000000E+00  0.00000000E+00
  0.00000000E+00  0.00000000E+00  0.00000000E+00
  0.00000000E+00  0.00000000E+00  0.00000000E+00
  0.00000000E+00  0.00000000E+00  0.00000000E+00
  0.00000000E+00  0.00000000E+00  0.00000000E+00
  0.00000000E+00  0.00000000E+00  0.00000000E+00
  0.00000000E+00  0.00000000E+00  0.00000000E+00
  0.00000000E+00  0.00000000E+00  0.00000000E+00
  0.00000000E+00  0.00000000E+00  0.00000000E+00
  0.00000000E+00  0.00000000E+00  0.00000000E+00
  0.00000000E+00  0.00000000E+00  0.00000000E+00
  0.00000000E+00  0.00000000E+00  0.00000000E+00
  0.00000000E+00  0.00000000E+00  0.00000000E+00
  0.00000000E+00  0.00000000E+00  0.00000000E+00
  0.00000000E+00  0.00000000E+00  0.00000000E+00
  0.00000000E+00  0.00000000E+00  0.00000000E+00
  0.00000000E+00  0.00000000E+00  0.00000000E+00
  0.00000000E+00  0.00000000E+00  0.00000000E+00
  0.00000000E+00  0.00000000E+00  0.00000000E+00
  0.00000000E+00  0.00000000E+00  0.00000000E+00
  0.00000000E+00  0.00000000E+00  0.00000000E+00
  0.00000000E+00  0.00000000E+00  0.00000000E+00
  0.00000000E+00  0.00000000E+00  0.00000000E+00
  0.00000000E+00  0.00000000E+00  0.00000000E+00
  0.00000000E+00  0.00000000E+00  0.00000000E+00
  0.00000000E+00  0.00000000E+00  0.00000000E+00
  0.00000000E+00  0.00000000E+00  0.00000000E+00
  0.00000000E+00  0.00000000E+00  0.00000000E+00
  0.00000000E+00  0.00000000E+00  0.00000000E+00
  0.00000000E+00  0.00000000E+00  0.00000000E+00
  0.00000000E+00  0.00000000E+00  0.00000000E+00
  0.00000000E+00  0.00000000E+00  0.00000000E+00
  0.00000000E+00  0.00000000E+00  0.00000000E+00
  0.00000000E+00  0.00000000E+00  0.00000000E+00
