FCC Cu                                  
   1.00000000000000     
     7.2600002289000001    0.0000000000000000    0.0000000000000000
     0.0000000000000000    5.1335954666000001    0.0000000000000000
     0.0000000000000000    0.0000000000000000   23.9837913512999990
   Cu   H 
    32     2
Selective dynamics
Direct
  0.0000000000000000  0.0000000000000000  0.0000000000000000   F   F   F
  0.0000000000000000  0.4999999999415579  0.0000000000000000   F   F   F
  0.4999999999380194  0.0000000000000000  0.0000000000000000   F   F   F
  0.4999999999380194  0.4999999999415579  0.0000000000000000   F   F   F
  0.2499999999690061  0.2500000000681766  0.0535110904777980   F   F   F
  0.2499999999690061  0.7500000000097415  0.0535110904777980   F   F   F
  0.7499999999070255  0.2500000000681766  0.0535110904777980   F   F   F
  0.7499999999070255  0.7500000000097415  0.0535110904777980   F   F   F
  0.0000000000000000  0.0000000000000000  0.1054137052072122   F   F   F
  0.0000000000000000  0.4999999999415579  0.1054137052072122   F   F   F
  0.4999999999380194  0.0000000000000000  0.1054137052072122   F   F   F
  0.4999999999380194  0.4999999999415579  0.1054137052072122   F   F   F
  0.2499708578978037  0.2505349843880460  0.1573043032480509   T   T   T
  0.2499725386857232  0.7505332758771530  0.1573205088202668   T   T   T
  0.7500291419782277  0.2505349843880460  0.1573043032480509   T   T   T
  0.7500274611903084  0.7505332758771530  0.1573205088202668   T   T   T
  0.0000000000000000  0.0006965314223464  0.2089059698528362   T   T   T
  0.0000000000000000  0.5011448252579803  0.2089330059197674   T   T   T
  0.4999999999380194  0.0011057292693638  0.2087445212957022   T   T   T
  0.4999999999380194  0.5007349052890175  0.2087912094280920   T   T   T
  0.2499985865496531  0.2511422551625455  0.2596663414624401   T   T   T
  0.2502205365041465  0.7510587298152502  0.2597047687490803   T   T   T
  0.7500014133263787  0.2511422551625455  0.2596663414624401   T   T   T
  0.7497794633718851  0.7510587298152502  0.2597047687490803   T   T   T
  0.0000000000000000  0.0012900146323601  0.3145838639327774   T   T   T
  0.0000000000000000  0.5011332913633803  0.3145323857609270   T   T   T
  0.4999999999380194  0.0011398841952273  0.3143437769920474   T   T   T
  0.4999999999380194  0.5013030324019853  0.3145318080488569   T   T   T
  0.2498179337968514  0.2514429192901619  0.3620698291913734   T   T   T
  0.2495841112444058  0.7512142507290566  0.3620332538878882   T   T   T
  0.7501820660791803  0.2514429192901619  0.3620698291913734   T   T   T
  0.7504158886316259  0.7512142507290566  0.3620332538878882   T   T   T
  0.4999999999380194  0.7616556465923835  0.4523967902630122   T   T   T
  0.4999999999380194  0.8087013666189613  0.4823362126870543   T   T   T
 
  0.00000000E+00  0.00000000E+00  0.00000000E+00
  0.00000000E+00  0.00000000E+00  0.00000000E+00
  0.00000000E+00  0.00000000E+00  0.00000000E+00
  0.00000000E+00  0.00000000E+00  0.00000000E+00
  0.00000000E+00  0.00000000E+00  0.00000000E+00
  0.00000000E+00  0.00000000E+00  0.00000000E+00
  0.00000000E+00  0.00000000E+00  0.00000000E+00
  0.00000000E+00  0.00000000E+00  0.00000000E+00
  0.00000000E+00  0.00000000E+00  0.00000000E+00
  0.00000000E+00  0.00000000E+00  0.00000000E+00
  0.00000000E+00  0.00000000E+00  0.00000000E+00
  0.00000000E+00  0.00000000E+00  0.00000000E+00
  0.00000000E+00  0.00000000E+00  0.00000000E+00
  0.00000000E+00  0.00000000E+00  0.00000000E+00
  0.00000000E+00  0.00000000E+00  0.00000000E+00
  0.00000000E+00  0.00000000E+00  0.00000000E+00
  0.00000000E+00  0.00000000E+00  0.00000000E+00
  0.00000000E+00  0.00000000E+00  0.00000000E+00
  0.00000000E+00  0.00000000E+00  0.00000000E+00
  0.00000000E+00  0.00000000E+00  0.00000000E+00
  0.00000000E+00  0.00000000E+00  0.00000000E+00
  0.00000000E+00  0.00000000E+00  0.00000000E+00
  0.00000000E+00  0.00000000E+00  0.00000000E+00
  0.00000000E+00  0.00000000E+00  0.00000000E+00
  0.00000000E+00  0.00000000E+00  0.00000000E+00
  0.00000000E+00  0.00000000E+00  0.00000000E+00
  0.00000000E+00  0.00000000E+00  0.00000000E+00
  0.00000000E+00  0.00000000E+00  0.00000000E+00
  0.00000000E+00  0.00000000E+00  0.00000000E+00
  0.00000000E+00  0.00000000E+00  0.00000000E+00
  0.00000000E+00  0.00000000E+00  0.00000000E+00
  0.00000000E+00  0.00000000E+00  0.00000000E+00
  0.00000000E+00  0.00000000E+00  0.00000000E+00
  0.00000000E+00  0.00000000E+00  0.00000000E+00
