FCC Cu
1.0
5.1335954666         0.0000000000         0.0000000000
2.5667977333         4.4458240868         0.0000000000
0.0000000000         0.0000000000        29.6704711914
Cu H
32 1
Cartesian
0.0     0.0     0.0     F     F     F
1.283398866     2.222912043     0.0     F     F     F
2.566797733     0.0     0.0     F     F     F
3.8501966     2.222912043     0.0     F     F     F
1.283398867     0.740970681     2.095781568     F     F     F
2.566797734     2.963882724     2.095781568     F     F     F
3.8501966     0.740970681     2.095781568     F     F     F
5.133595467     2.963882724     2.095781568     F     F     F
2.566797733     1.481941362     4.108476469     F     F     F
3.8501966     3.704853405     4.108476469     F     F     F
5.133595466     1.481941362     4.108476469     F     F     F
6.416994333     3.704853405     4.108476469     F     F     F
0.0     0.0     6.132123229     T     T     T
1.283398866     2.222912043     6.132123229     T     T     T
2.566797733     0.0     6.132123229     T     T     T
3.8501966     2.222912043     6.132123229     T     T     T
1.283398867     0.740970681     8.156073927     T     T     T
2.566797734     2.963882724     8.156073927     T     T     T
3.8501966     0.740970681     8.156073927     T     T     T
5.133595467     2.963882724     8.156073927     T     T     T
2.566797733     1.481941362     10.182881128     T     T     T
3.8501966     3.704853405     10.182881128     T     T     T
5.133595466     1.481941362     10.182881128     T     T     T
6.416994333     3.704853405     10.182881128     T     T     T
0.0     0.0     12.196292816     T     T     T
1.283398866     2.222912043     12.196292816     T     T     T
2.566797733     0.0     12.196292816     T     T     T
3.8501966     2.222912043     12.196292816     T     T     T
1.283398867     0.740970681     14.257985253     T     T     T
2.566797734     2.963882724     14.257985253     T     T     T
3.8501966     0.740970681     14.257985253     T     T     T
5.133595467     2.963882724     14.257985253     T     T     T
6.4169943336666675 2.222912043 15.851725247699997    T   T   T
