FCC Cu                                  
   1.00000000000000     
     7.2600002289000001    0.0000000000000000    0.0000000000000000
     0.0000000000000000    7.2600002289000001    0.0000000000000000
     0.0000000000000000    0.0000000000000000   27.7049999237000009
   Cu   H 
    64     2
Direct
 -0.0000000000000000 -0.0001130427801621  0.0073124450032225
 -0.0000000000000000  0.5001130427181810  0.0073124450032225
  0.4999999999380194  0.0000878716534573  0.0073169473130379
  0.4999999999380194  0.4999121282845619  0.0073169473130379
  0.2501130427491681  0.2499999999690061  0.0073124450032225
  0.2499121283155487  0.7499999999070255  0.0073169473130379
  0.7498869571268638  0.2499999999690061  0.0073124450032225
  0.7500878715604826  0.7499999999070255  0.0073169473130379
 -0.0000000000000000  0.2499999999690061  0.0697012546188785
 -0.0000000000000000  0.7499999999070255  0.0697065842809435
  0.4999999999380194  0.2499999999690061  0.0697065842809435
  0.4999999999380194  0.7499999999070255  0.0697208008804563
  0.2500270838795685 -0.0000270839105626  0.0696986006248629
  0.2500270838795685  0.5000270838485821  0.0696986006248629
  0.7499729159964629 -0.0000270839105626  0.0696986006248629
  0.7499729159964629  0.5000270838485821  0.0696986006248629
 -0.0000000000000000 -0.0000988072014478  0.1335024825089975
 -0.0000000000000000  0.5000988071394671  0.1335024825089975
  0.4999999999380194  0.0000417709562332  0.1334851199112538
  0.4999999999380194  0.4999582289817862  0.1334851199112538
  0.2500988071704538  0.2499999999690061  0.1335024825089975
  0.2499582290127730  0.7499999999070255  0.1334851199112538
  0.7499011927055779  0.2499999999690061  0.1335024825089975
  0.7500417708632586  0.7499999999070255  0.1334851199112538
 -0.0000000000000000  0.2499999999690061  0.1964830519370120
 -0.0000000000000000  0.7499999999070255  0.1966790126722878
  0.4999999999380194  0.2499999999690061  0.1966790126722878
  0.4999999999380194  0.7499999999070255  0.1965037675080322
  0.2501091765427855 -0.0001091765737792  0.1965733828305496
  0.2501091765427855  0.5001091765117982  0.1965733828305496
  0.7498908233332466 -0.0001091765737792  0.1965733828305496
  0.7498908233332466  0.5001091765117982  0.1965733828305496
 -0.0000000000000000  0.0000626806507501  0.2592629416247096
 -0.0000000000000000  0.4999373192872691  0.2592629416247096
  0.4999999999380194 -0.0001208560971055  0.2593298630511257
  0.4999999999380194  0.5001208560351251  0.2593298630511257
  0.2499373193182560  0.2499999999690061  0.2592629416247096
  0.2501208560661115  0.7499999999070255  0.2593298630511257
  0.7500626805577754  0.2499999999690061  0.2592629416247096
  0.7498791438099197  0.7499999999070255  0.2593298630511257
 -0.0000000000000000  0.2499999999690061  0.3223281000639381
 -0.0000000000000000  0.7499999999070255  0.3222773417020481
  0.4999999999380194  0.2499999999690061  0.3222773417020481
  0.4999999999380194  0.7499999999070255  0.3223211340466264
  0.2499530610797929  0.0000469388892131  0.3222702141822307
  0.2499530610797929  0.4999530610488063  0.3222702141822307
  0.7500469387962385  0.0000469388892131  0.3222702141822307
  0.7500469387962385  0.4999530610488063  0.3222702141822307
 -0.0000000000000000 -0.0000365182064018  0.3860311052395742
 -0.0000000000000000  0.5000365181444211  0.3860311052395742
  0.4999999999380194  0.0000860123201820  0.3860405305298598
  0.4999999999380194  0.4999139876178373  0.3860405305298598
  0.2500365181754079  0.2499999999690061  0.3860311052395742
  0.2499139876488241  0.7499999999070255  0.3860405305298598
  0.7499634817006235  0.2499999999690061  0.3860311052395742
  0.7500860122272074  0.7499999999070255  0.3860405305298598
 -0.0000000000000000  0.2499999999690061  0.4484213264945316
 -0.0000000000000000  0.7499999999070255  0.4484338085950027
  0.4999999999380194  0.2499999999690061  0.4484338085950027
  0.4999999999380194  0.7499999999070255  0.4482415824977758
  0.2498095899155456  0.0001904100534605  0.4483035718907570
  0.2498095899155456  0.4998095898845587  0.4483035718907570
  0.7501904099604865  0.0001904100534605  0.4483035718907570
  0.7501904099604865  0.4998095898845587  0.4483035718907570
  0.4999999999380123  0.7499999999070255  0.5289437617846662
  0.4999999999380123  0.7499999999070255  0.5564114496753202
 
  0.00000000E+00  0.00000000E+00  0.00000000E+00
  0.00000000E+00  0.00000000E+00  0.00000000E+00
  0.00000000E+00  0.00000000E+00  0.00000000E+00
  0.00000000E+00  0.00000000E+00  0.00000000E+00
  0.00000000E+00  0.00000000E+00  0.00000000E+00
  0.00000000E+00  0.00000000E+00  0.00000000E+00
  0.00000000E+00  0.00000000E+00  0.00000000E+00
  0.00000000E+00  0.00000000E+00  0.00000000E+00
  0.00000000E+00  0.00000000E+00  0.00000000E+00
  0.00000000E+00  0.00000000E+00  0.00000000E+00
  0.00000000E+00  0.00000000E+00  0.00000000E+00
  0.00000000E+00  0.00000000E+00  0.00000000E+00
  0.00000000E+00  0.00000000E+00  0.00000000E+00
  0.00000000E+00  0.00000000E+00  0.00000000E+00
  0.00000000E+00  0.00000000E+00  0.00000000E+00
  0.00000000E+00  0.00000000E+00  0.00000000E+00
  0.00000000E+00  0.00000000E+00  0.00000000E+00
  0.00000000E+00  0.00000000E+00  0.00000000E+00
  0.00000000E+00  0.00000000E+00  0.00000000E+00
  0.00000000E+00  0.00000000E+00  0.00000000E+00
  0.00000000E+00  0.00000000E+00  0.00000000E+00
  0.00000000E+00  0.00000000E+00  0.00000000E+00
  0.00000000E+00  0.00000000E+00  0.00000000E+00
  0.00000000E+00  0.00000000E+00  0.00000000E+00
  0.00000000E+00  0.00000000E+00  0.00000000E+00
  0.00000000E+00  0.00000000E+00  0.00000000E+00
  0.00000000E+00  0.00000000E+00  0.00000000E+00
  0.00000000E+00  0.00000000E+00  0.00000000E+00
  0.00000000E+00  0.00000000E+00  0.00000000E+00
  0.00000000E+00  0.00000000E+00  0.00000000E+00
  0.00000000E+00  0.00000000E+00  0.00000000E+00
  0.00000000E+00  0.00000000E+00  0.00000000E+00
  0.00000000E+00  0.00000000E+00  0.00000000E+00
  0.00000000E+00  0.00000000E+00  0.00000000E+00
  0.00000000E+00  0.00000000E+00  0.00000000E+00
  0.00000000E+00  0.00000000E+00  0.00000000E+00
  0.00000000E+00  0.00000000E+00  0.00000000E+00
  0.00000000E+00  0.00000000E+00  0.00000000E+00
  0.00000000E+00  0.00000000E+00  0.00000000E+00
  0.00000000E+00  0.00000000E+00  0.00000000E+00
  0.00000000E+00  0.00000000E+00  0.00000000E+00
  0.00000000E+00  0.00000000E+00  0.00000000E+00
  0.00000000E+00  0.00000000E+00  0.00000000E+00
  0.00000000E+00  0.00000000E+00  0.00000000E+00
  0.00000000E+00  0.00000000E+00  0.00000000E+00
  0.00000000E+00  0.00000000E+00  0.00000000E+00
  0.00000000E+00  0.00000000E+00  0.00000000E+00
  0.00000000E+00  0.00000000E+00  0.00000000E+00
  0.00000000E+00  0.00000000E+00  0.00000000E+00
  0.00000000E+00  0.00000000E+00  0.00000000E+00
  0.00000000E+00  0.00000000E+00  0.00000000E+00
  0.00000000E+00  0.00000000E+00  0.00000000E+00
  0.00000000E+00  0.00000000E+00  0.00000000E+00
  0.00000000E+00  0.00000000E+00  0.00000000E+00
  0.00000000E+00  0.00000000E+00  0.00000000E+00
  0.00000000E+00  0.00000000E+00  0.00000000E+00
  0.00000000E+00  0.00000000E+00  0.00000000E+00
  0.00000000E+00  0.00000000E+00  0.00000000E+00
  0.00000000E+00  0.00000000E+00  0.00000000E+00
  0.00000000E+00  0.00000000E+00  0.00000000E+00
  0.00000000E+00  0.00000000E+00  0.00000000E+00
  0.00000000E+00  0.00000000E+00  0.00000000E+00
  0.00000000E+00  0.00000000E+00  0.00000000E+00
  0.00000000E+00  0.00000000E+00  0.00000000E+00
  0.00000000E+00  0.00000000E+00  0.00000000E+00
  0.00000000E+00  0.00000000E+00  0.00000000E+00
