FCC Cu                                  
   1.00000000000000     
     3.6300001144000000    0.0000000000000000    0.0000000000000000
     0.0000000000000000    2.5667977333000001    0.0000000000000000
     0.0000000000000000    0.0000000000000000   23.9837913512999990
   Cu   H 
     8     2
Direct
  0.0000000000000000  0.0000000000000000  0.0003450552049840
  0.4999999999449045  0.5000000001363532  0.0477765073573367
  0.0000000000000000  0.0000000000000000  0.1018428590452319
  0.4999999999449045  0.5000000001363532  0.1537532623808146
  0.0000000000000000  0.0000000000000000  0.2066056514322431
  0.4999999999449045  0.5000000001363532  0.2584251294181022
  0.0000000000000000  0.0000000000000000  0.3126932077744252
  0.4999999999449045  0.5000000001363532  0.3596920895407966
  0.9999999999173639  0.0000000000779181  0.4418285973769369
  0.9999999999173639  0.0000000000779181  0.4734716293120871
 
  0.00000000E+00  0.00000000E+00  0.00000000E+00
  0.00000000E+00  0.00000000E+00  0.00000000E+00
  0.00000000E+00  0.00000000E+00  0.00000000E+00
  0.00000000E+00  0.00000000E+00  0.00000000E+00
  0.00000000E+00  0.00000000E+00  0.00000000E+00
  0.00000000E+00  0.00000000E+00  0.00000000E+00
  0.00000000E+00  0.00000000E+00  0.00000000E+00
  0.00000000E+00  0.00000000E+00  0.00000000E+00
  0.00000000E+00  0.00000000E+00  0.00000000E+00
  0.00000000E+00  0.00000000E+00  0.00000000E+00
