FCC Cu                                  
   1.00000000000000     
     2.5667977333000001    0.0000000000000000    0.0000000000000000
     1.2833988667000000    2.2229120434000000    0.0000000000000000
     0.0000000000000000    0.0000000000000000   29.6704711914000008
   Cu   H 
     8     2
Direct
 -0.0005166373803083  0.0010332747606167 -0.0005024553851714
  0.3330134522764412  0.3339730957068419  0.0666692046013031
  0.6667130651756320  0.6665738693890036  0.1347641461232622
  0.0011350979864336 -0.0022701959728671  0.2033224903644627
  0.3365925154609994  0.3268149693377259  0.2712536484956520
  0.6729076772483282  0.6541846452436113  0.3397624264417868
  0.0080151721948859 -0.0160303443897718  0.4079686858143065
  0.3407715498711796  0.3184569005173654  0.4752428858829650
 -0.0592844637291418  0.1185689277439856  0.5489711727181700
  0.9153348634081131  0.1693302734602389  0.5742527565803972
 
  0.00000000E+00  0.00000000E+00  0.00000000E+00
  0.00000000E+00  0.00000000E+00  0.00000000E+00
  0.00000000E+00  0.00000000E+00  0.00000000E+00
  0.00000000E+00  0.00000000E+00  0.00000000E+00
  0.00000000E+00  0.00000000E+00  0.00000000E+00
  0.00000000E+00  0.00000000E+00  0.00000000E+00
  0.00000000E+00  0.00000000E+00  0.00000000E+00
  0.00000000E+00  0.00000000E+00  0.00000000E+00
  0.00000000E+00  0.00000000E+00  0.00000000E+00
  0.00000000E+00  0.00000000E+00  0.00000000E+00
