FCC Cu                                  
   1.00000000000000     
     3.6300001144000000    0.0000000000000000    0.0000000000000000
     0.0000000000000000    2.5667977333000001    0.0000000000000000
     0.0000000000000000    0.0000000000000000   21.4169939999999990
   Cu
     6
Selective dynamics
Cartesian
0.0 0.0 0.0
1.8150000570000033 1.283398866999991 1.2833988669999299
0.0 0.0 2.527796717598095
1.8150000570000033 1.283398866999991 3.807921841294522
0.0 0.0 5.12471216750711
1.8150000570000033 1.283398866999991 6.245268634496528
