FCC Cu                                  
   1.00000000000000     
    10.8900003433000006    0.0000000000000000    0.0000000000000000
     0.0000000000000000   10.8900003433000006    0.0000000000000000
     0.0000000000000000    0.0000000000000000   27.7049999237000009
   Cu   H 
   144     1
Selective dynamics
Direct
  0.0000000000000000  0.0000000000000000  0.0000000000000000   F   F   F
  0.0000000000000000  0.3333333332935382  0.0000000000000000   F   F   F
  0.0000000000000000  0.6666666666789069  0.0000000000000000   F   F   F
  0.3333333332935382  0.0000000000000000  0.0000000000000000   F   F   F
  0.3333333332935382  0.3333333332935382  0.0000000000000000   F   F   F
  0.3333333332935382  0.6666666666789069  0.0000000000000000   F   F   F
  0.6666666666789069  0.0000000000000000  0.0000000000000000   F   F   F
  0.6666666666789069  0.3333333332935382  0.0000000000000000   F   F   F
  0.6666666666789069  0.6666666666789069  0.0000000000000000   F   F   F
  0.1666666666467691  0.1666666666467691  0.0000000000000000   F   F   F
  0.1666666666467691  0.4999999999403144  0.0000000000000000   F   F   F
  0.1666666666467691  0.8333333333256832  0.0000000000000000   F   F   F
  0.4999999999403144  0.1666666666467691  0.0000000000000000   F   F   F
  0.4999999999403144  0.4999999999403144  0.0000000000000000   F   F   F
  0.4999999999403144  0.8333333333256832  0.0000000000000000   F   F   F
  0.8333333333256832  0.1666666666467691  0.0000000000000000   F   F   F
  0.8333333333256832  0.4999999999403144  0.0000000000000000   F   F   F
  0.8333333333256832  0.8333333333256832  0.0000000000000000   F   F   F
  0.0000000000000000  0.1666666666467691  0.0655116416169861   F   F   F
  0.0000000000000000  0.4999999999403144  0.0655116416169861   F   F   F
  0.0000000000000000  0.8333333333256832  0.0655116416169861   F   F   F
  0.3333333332935382  0.1666666666467691  0.0655116416169861   F   F   F
  0.3333333332935382  0.4999999999403144  0.0655116416169861   F   F   F
  0.3333333332935382  0.8333333333256832  0.0655116416169861   F   F   F
  0.6666666666789069  0.1666666666467691  0.0655116416169861   F   F   F
  0.6666666666789069  0.4999999999403144  0.0655116416169861   F   F   F
  0.6666666666789069  0.8333333333256832  0.0655116416169861   F   F   F
  0.1666666666467691  0.0000000000000000  0.0655116416169861   F   F   F
  0.1666666666467691  0.3333333332935382  0.0655116416169861   F   F   F
  0.1666666666467691  0.6666666666789069  0.0655116416169861   F   F   F
  0.4999999999403144  0.0000000000000000  0.0655116416169861   F   F   F
  0.4999999999403144  0.3333333332935382  0.0655116416169861   F   F   F
  0.4999999999403144  0.6666666666789069  0.0655116416169861   F   F   F
  0.8333333333256832  0.0000000000000000  0.0655116416169861   F   F   F
  0.8333333333256832  0.3333333332935382  0.0655116416169861   F   F   F
  0.8333333333256832  0.6666666666789069  0.0655116416169861   F   F   F
  0.0000000000000000  0.0000000000000000  0.1311955341119244   F   F   F
  0.0000000000000000  0.3333333332935382  0.1311955341119244   F   F   F
  0.0000000000000000  0.6666666666789069  0.1311955341119244   F   F   F
  0.3333333332935382  0.0000000000000000  0.1311955341119244   F   F   F
  0.3333333332935382  0.3333333332935382  0.1311955341119244   F   F   F
  0.3333333332935382  0.6666666666789069  0.1311955341119244   F   F   F
  0.6666666666789069  0.0000000000000000  0.1311955341119244   F   F   F
  0.6666666666789069  0.3333333332935382  0.1311955341119244   F   F   F
  0.6666666666789069  0.6666666666789069  0.1311955341119244   F   F   F
  0.1666666666467691  0.1666666666467691  0.1311955341119244   F   F   F
  0.1666666666467691  0.4999999999403144  0.1311955341119244   F   F   F
  0.1666666666467691  0.8333333333256832  0.1311955341119244   F   F   F
  0.4999999999403144  0.1666666666467691  0.1311955341119244   F   F   F
  0.4999999999403144  0.4999999999403144  0.1311955341119244   F   F   F
  0.4999999999403144  0.8333333333256832  0.1311955341119244   F   F   F
  0.8333333333256832  0.1666666666467691  0.1311955341119244   F   F   F
  0.8333333333256832  0.4999999999403144  0.1311955341119244   F   F   F
  0.8333333333256832  0.8333333333256832  0.1311955341119244   F   F   F
  0.0001296664859155  0.1667963331326845  0.1944863590197188   T   T   T
  0.0004629285022504  0.4999999999403144  0.1944847424247148   T   T   T
  0.0001296664859155  0.8332036668397677  0.1944863590197188   T   T   T
  0.3333333332935382  0.1671295951490195  0.1944847424247148   T   T   T
  0.3333333332935382  0.4999999999403144  0.1944579076355678   T   T   T
  0.3333333332935382  0.8328704048234328  0.1944847424247148   T   T   T
  0.6665370001929914  0.1667963331326845  0.1944863590197188   T   T   T
  0.6662037381766566  0.4999999999403144  0.1944847424247148   T   T   T
  0.6665370001929914  0.8332036668397677  0.1944863590197188   T   T   T
  0.1666691164610123  0.0000000000000000  0.1945188640791750   T   T   T
  0.1667593175648553  0.3334259842116244  0.1945591802857426   T   T   T
  0.1667593175648553  0.6665740157608209  0.1945591802857426   T   T   T
  0.4999975501260713  0.0000000000000000  0.1945188640791750   T   T   T
  0.4999073490222282  0.3334259842116244  0.1945591802857426   T   T   T
  0.4999073490222282  0.6665740157608209  0.1945591802857426   T   T   T
  0.8333333333256832  0.0000000000000000  0.1943944576536824   T   T   T
  0.8333333333256832  0.3333357831077814  0.1945188640791750   T   T   T
  0.8333333333256832  0.6666642168646637  0.1945188640791750   T   T   T
  0.0000069902946614  0.0000000000000000  0.2576796501835803   T   T   T
 -0.0001688363256119  0.3333044133843340  0.2577284793913531   T   T   T
 -0.0001688363256119  0.6666955865881111  0.2577284793913531   T   T   T
  0.3333333332935382  0.0000000000000000  0.2574303963126301   T   T   T
  0.3333333332935382  0.3336541742575211  0.2579554196879175   T   T   T
  0.3333333332935382  0.6663458257149242  0.2579554196879175   T   T   T
  0.6666596763842457  0.0000000000000000  0.2576796501835803   T   T   T
  0.6668355030045189  0.3333044133843340  0.2577284793913531   T   T   T
  0.6668355030045189  0.6666955865881111  0.2577284793913531   T   T   T
  0.1666377467375648  0.1664978303211572  0.2577284793913531   T   T   T
  0.1669875076107519  0.4999999999403144  0.2579554196879175   T   T   T
  0.1666377467375648  0.8335021696512951  0.2577284793913531   T   T   T
  0.5000289198495186  0.1664978303211572  0.2577284793913531   T   T   T
  0.4996791589763315  0.4999999999403144  0.2579554196879175   T   T   T
  0.5000289198495186  0.8335021696512951  0.2577284793913531   T   T   T
  0.8333333333256832  0.1666736569414305  0.2576796501835803   T   T   T
  0.8333333333256832  0.4999999999403144  0.2574303963126301   T   T   T
  0.8333333333256832  0.8333263430310219  0.2576796501835803   T   T   T
 -0.0000659892994942  0.1666006773472749  0.3211732830284028   T   T   T
 -0.0006577734049388  0.4999999999403144  0.3208226141001030   T   T   T
 -0.0000659892994942  0.8333993226251774  0.3211732830284028   T   T   T
  0.3333333332935382  0.1660088932418303  0.3208226141001030   T   T   T
  0.3333333332935382  0.4999999999403144  0.3214559454920479   T   T   T
  0.3333333332935382  0.8339911067306220  0.3208226141001030   T   T   T
  0.6667326559784011  0.1666006773472749  0.3211732830284028   T   T   T
  0.6673244400838458  0.4999999999403144  0.3208226141001030   T   T   T
  0.6667326559784011  0.8333993226251774  0.3211732830284028   T   T   T
  0.1665518250019924  0.0000000000000000  0.3212447612640579   T   T   T
  0.1661457981645361  0.3328124648113053  0.3209131033724967   T   T   T
  0.1661457981645361  0.6671875351611399  0.3209131033724967   T   T   T
  0.5001148415850910  0.0000000000000000  0.3212447612640579   T   T   T
  0.5005208684225474  0.3328124648113053  0.3209131033724967   T   T   T
  0.5005208684225474  0.6671875351611399  0.3209131033724967   T   T   T
  0.8333333333256832  0.0000000000000000  0.3211019155963420   T   T   T
  0.8333333333256832  0.3332184916487617  0.3212447612640579   T   T   T
  0.8333333333256832  0.6667815083236835  0.3212447612640579   T   T   T
  0.0001104728519656  0.0000000000000000  0.3850378622633859   T   T   T
  0.0005557617237350  0.3335009321952682  0.3852131452686444   T   T   T
  0.0005557617237350  0.6664990677771769  0.3852131452686444   T   T   T
  0.3333333332935382  0.0000000000000000  0.3848814355173446   T   T   T
  0.3333333332935382  0.3331160637420322  0.3842375189418488   T   T   T
  0.3333333332935382  0.6668839362304130  0.3842375189418488   T   T   T
  0.6665561938269414  0.0000000000000000  0.3850378622633859   T   T   T
  0.6661109049551719  0.3335009321952682  0.3852131452686444   T   T   T
  0.6661109049551719  0.6664990677771769  0.3852131452686444   T   T   T
  0.1668342655484991  0.1672224283705041  0.3852131452686444   T   T   T
  0.1664493970952632  0.4999999999403144  0.3842375189418488   T   T   T
  0.1668342655484991  0.8327775716019481  0.3852131452686444   T   T   T
  0.4998324010385844  0.1672224283705041  0.3852131452686444   T   T   T
  0.5002172694918204  0.4999999999403144  0.3842375189418488   T   T   T
  0.4998324010385844  0.8327775716019481  0.3852131452686444   T   T   T
  0.8333333333256832  0.1667771394987347  0.3850378622633859   T   T   T
  0.8333333333256832  0.4999999999403144  0.3848814355173446   T   T   T
  0.8333333333256832  0.8332228604737176  0.3850378622633859   T   T   T
  0.0001439227774755  0.1668105894242446  0.4475853142207504   T   T   T
 -0.0004873910982210  0.4999999999403144  0.4473011197360729   T   T   T
  0.0001439227774755  0.8331894105482076  0.4475853142207504   T   T   T
  0.3333333332935382  0.1661792755485482  0.4473011197360729   T   T   T
  0.3333333332935382  0.4999999999403144  0.4476466632643782   T   T   T
  0.3333333332935382  0.8338207244239041  0.4473011197360729   T   T   T
  0.6665227439014314  0.1668105894242446  0.4475853142207504   T   T   T
  0.6671540577771279  0.4999999999403144  0.4473011197360729   T   T   T
  0.6665227439014314  0.8331894105482076  0.4475853142207504   T   T   T
  0.1666001734028441  0.0000000000000000  0.4475788780876949   T   T   T
  0.1675679883387246  0.3342346549854937  0.4480318207237241   T   T   T
  0.1675679883387246  0.6657653449869514  0.4480318207237241   T   T   T
  0.5000664931842393  0.0000000000000000  0.4475788780876949   T   T   T
  0.4990986782483589  0.3342346549854937  0.4480318207237241   T   T   T
  0.4990986782483589  0.6657653449869514  0.4480318207237241   T   T   T
  0.8333333333256832  0.0000000000000000  0.4474900596959885   T   T   T
  0.8333333333256832  0.3332668400496132  0.4475788780876949   T   T   T
  0.8333333333256832  0.6667331599228319  0.4475788780876949   T   T   T
  0.3333333332935382  0.4999999999403144  0.5022565012847444   T   T   T
 
  0.00000000E+00  0.00000000E+00  0.00000000E+00
  0.00000000E+00  0.00000000E+00  0.00000000E+00
  0.00000000E+00  0.00000000E+00  0.00000000E+00
  0.00000000E+00  0.00000000E+00  0.00000000E+00
  0.00000000E+00  0.00000000E+00  0.00000000E+00
  0.00000000E+00  0.00000000E+00  0.00000000E+00
  0.00000000E+00  0.00000000E+00  0.00000000E+00
  0.00000000E+00  0.00000000E+00  0.00000000E+00
  0.00000000E+00  0.00000000E+00  0.00000000E+00
  0.00000000E+00  0.00000000E+00  0.00000000E+00
  0.00000000E+00  0.00000000E+00  0.00000000E+00
  0.00000000E+00  0.00000000E+00  0.00000000E+00
  0.00000000E+00  0.00000000E+00  0.00000000E+00
  0.00000000E+00  0.00000000E+00  0.00000000E+00
  0.00000000E+00  0.00000000E+00  0.00000000E+00
  0.00000000E+00  0.00000000E+00  0.00000000E+00
  0.00000000E+00  0.00000000E+00  0.00000000E+00
  0.00000000E+00  0.00000000E+00  0.00000000E+00
  0.00000000E+00  0.00000000E+00  0.00000000E+00
  0.00000000E+00  0.00000000E+00  0.00000000E+00
  0.00000000E+00  0.00000000E+00  0.00000000E+00
  0.00000000E+00  0.00000000E+00  0.00000000E+00
  0.00000000E+00  0.00000000E+00  0.00000000E+00
  0.00000000E+00  0.00000000E+00  0.00000000E+00
  0.00000000E+00  0.00000000E+00  0.00000000E+00
  0.00000000E+00  0.00000000E+00  0.00000000E+00
  0.00000000E+00  0.00000000E+00  0.00000000E+00
  0.00000000E+00  0.00000000E+00  0.00000000E+00
  0.00000000E+00  0.00000000E+00  0.00000000E+00
  0.00000000E+00  0.00000000E+00  0.00000000E+00
  0.00000000E+00  0.00000000E+00  0.00000000E+00
  0.00000000E+00  0.00000000E+00  0.00000000E+00
  0.00000000E+00  0.00000000E+00  0.00000000E+00
  0.00000000E+00  0.00000000E+00  0.00000000E+00
  0.00000000E+00  0.00000000E+00  0.00000000E+00
  0.00000000E+00  0.00000000E+00  0.00000000E+00
  0.00000000E+00  0.00000000E+00  0.00000000E+00
  0.00000000E+00  0.00000000E+00  0.00000000E+00
  0.00000000E+00  0.00000000E+00  0.00000000E+00
  0.00000000E+00  0.00000000E+00  0.00000000E+00
  0.00000000E+00  0.00000000E+00  0.00000000E+00
  0.00000000E+00  0.00000000E+00  0.00000000E+00
  0.00000000E+00  0.00000000E+00  0.00000000E+00
  0.00000000E+00  0.00000000E+00  0.00000000E+00
  0.00000000E+00  0.00000000E+00  0.00000000E+00
  0.00000000E+00  0.00000000E+00  0.00000000E+00
  0.00000000E+00  0.00000000E+00  0.00000000E+00
  0.00000000E+00  0.00000000E+00  0.00000000E+00
  0.00000000E+00  0.00000000E+00  0.00000000E+00
  0.00000000E+00  0.00000000E+00  0.00000000E+00
  0.00000000E+00  0.00000000E+00  0.00000000E+00
  0.00000000E+00  0.00000000E+00  0.00000000E+00
  0.00000000E+00  0.00000000E+00  0.00000000E+00
  0.00000000E+00  0.00000000E+00  0.00000000E+00
  0.00000000E+00  0.00000000E+00  0.00000000E+00
  0.00000000E+00  0.00000000E+00  0.00000000E+00
  0.00000000E+00  0.00000000E+00  0.00000000E+00
  0.00000000E+00  0.00000000E+00  0.00000000E+00
  0.00000000E+00  0.00000000E+00  0.00000000E+00
  0.00000000E+00  0.00000000E+00  0.00000000E+00
  0.00000000E+00  0.00000000E+00  0.00000000E+00
  0.00000000E+00  0.00000000E+00  0.00000000E+00
  0.00000000E+00  0.00000000E+00  0.00000000E+00
  0.00000000E+00  0.00000000E+00  0.00000000E+00
  0.00000000E+00  0.00000000E+00  0.00000000E+00
  0.00000000E+00  0.00000000E+00  0.00000000E+00
  0.00000000E+00  0.00000000E+00  0.00000000E+00
  0.00000000E+00  0.00000000E+00  0.00000000E+00
  0.00000000E+00  0.00000000E+00  0.00000000E+00
  0.00000000E+00  0.00000000E+00  0.00000000E+00
  0.00000000E+00  0.00000000E+00  0.00000000E+00
  0.00000000E+00  0.00000000E+00  0.00000000E+00
  0.00000000E+00  0.00000000E+00  0.00000000E+00
  0.00000000E+00  0.00000000E+00  0.00000000E+00
  0.00000000E+00  0.00000000E+00  0.00000000E+00
  0.00000000E+00  0.00000000E+00  0.00000000E+00
  0.00000000E+00  0.00000000E+00  0.00000000E+00
  0.00000000E+00  0.00000000E+00  0.00000000E+00
  0.00000000E+00  0.00000000E+00  0.00000000E+00
  0.00000000E+00  0.00000000E+00  0.00000000E+00
  0.00000000E+00  0.00000000E+00  0.00000000E+00
  0.00000000E+00  0.00000000E+00  0.00000000E+00
  0.00000000E+00  0.00000000E+00  0.00000000E+00
  0.00000000E+00  0.00000000E+00  0.00000000E+00
  0.00000000E+00  0.00000000E+00  0.00000000E+00
  0.00000000E+00  0.00000000E+00  0.00000000E+00
  0.00000000E+00  0.00000000E+00  0.00000000E+00
  0.00000000E+00  0.00000000E+00  0.00000000E+00
  0.00000000E+00  0.00000000E+00  0.00000000E+00
  0.00000000E+00  0.00000000E+00  0.00000000E+00
  0.00000000E+00  0.00000000E+00  0.00000000E+00
  0.00000000E+00  0.00000000E+00  0.00000000E+00
  0.00000000E+00  0.00000000E+00  0.00000000E+00
  0.00000000E+00  0.00000000E+00  0.00000000E+00
  0.00000000E+00  0.00000000E+00  0.00000000E+00
  0.00000000E+00  0.00000000E+00  0.00000000E+00
  0.00000000E+00  0.00000000E+00  0.00000000E+00
  0.00000000E+00  0.00000000E+00  0.00000000E+00
  0.00000000E+00  0.00000000E+00  0.00000000E+00
  0.00000000E+00  0.00000000E+00  0.00000000E+00
  0.00000000E+00  0.00000000E+00  0.00000000E+00
  0.00000000E+00  0.00000000E+00  0.00000000E+00
  0.00000000E+00  0.00000000E+00  0.00000000E+00
  0.00000000E+00  0.00000000E+00  0.00000000E+00
  0.00000000E+00  0.00000000E+00  0.00000000E+00
  0.00000000E+00  0.00000000E+00  0.00000000E+00
  0.00000000E+00  0.00000000E+00  0.00000000E+00
  0.00000000E+00  0.00000000E+00  0.00000000E+00
  0.00000000E+00  0.00000000E+00  0.00000000E+00
  0.00000000E+00  0.00000000E+00  0.00000000E+00
  0.00000000E+00  0.00000000E+00  0.00000000E+00
  0.00000000E+00  0.00000000E+00  0.00000000E+00
  0.00000000E+00  0.00000000E+00  0.00000000E+00
  0.00000000E+00  0.00000000E+00  0.00000000E+00
  0.00000000E+00  0.00000000E+00  0.00000000E+00
  0.00000000E+00  0.00000000E+00  0.00000000E+00
  0.00000000E+00  0.00000000E+00  0.00000000E+00
  0.00000000E+00  0.00000000E+00  0.00000000E+00
  0.00000000E+00  0.00000000E+00  0.00000000E+00
  0.00000000E+00  0.00000000E+00  0.00000000E+00
  0.00000000E+00  0.00000000E+00  0.00000000E+00
  0.00000000E+00  0.00000000E+00  0.00000000E+00
  0.00000000E+00  0.00000000E+00  0.00000000E+00
  0.00000000E+00  0.00000000E+00  0.00000000E+00
  0.00000000E+00  0.00000000E+00  0.00000000E+00
  0.00000000E+00  0.00000000E+00  0.00000000E+00
  0.00000000E+00  0.00000000E+00  0.00000000E+00
  0.00000000E+00  0.00000000E+00  0.00000000E+00
  0.00000000E+00  0.00000000E+00  0.00000000E+00
  0.00000000E+00  0.00000000E+00  0.00000000E+00
  0.00000000E+00  0.00000000E+00  0.00000000E+00
  0.00000000E+00  0.00000000E+00  0.00000000E+00
  0.00000000E+00  0.00000000E+00  0.00000000E+00
  0.00000000E+00  0.00000000E+00  0.00000000E+00
  0.00000000E+00  0.00000000E+00  0.00000000E+00
  0.00000000E+00  0.00000000E+00  0.00000000E+00
  0.00000000E+00  0.00000000E+00  0.00000000E+00
  0.00000000E+00  0.00000000E+00  0.00000000E+00
  0.00000000E+00  0.00000000E+00  0.00000000E+00
  0.00000000E+00  0.00000000E+00  0.00000000E+00
  0.00000000E+00  0.00000000E+00  0.00000000E+00
  0.00000000E+00  0.00000000E+00  0.00000000E+00
  0.00000000E+00  0.00000000E+00  0.00000000E+00
  0.00000000E+00  0.00000000E+00  0.00000000E+00
  0.00000000E+00  0.00000000E+00  0.00000000E+00
