FCC Cu                                  
   1.00000000000000     
    10.8900003433000006    0.0000000000000000    0.0000000000000000
     0.0000000000000000   10.8900003433000006    0.0000000000000000
     0.0000000000000000    0.0000000000000000   27.7049999237000009
   Cu   O 
   144     1
Selective dynamics
Direct
  0.0000000000000000  0.0000000000000000  0.0000000000000000   F   F   F
  0.0000000000000000  0.3333333332935382  0.0000000000000000   F   F   F
  0.0000000000000000  0.6666666666789069  0.0000000000000000   F   F   F
  0.3333333332935382  0.0000000000000000  0.0000000000000000   F   F   F
  0.3333333332935382  0.3333333332935382  0.0000000000000000   F   F   F
  0.3333333332935382  0.6666666666789069  0.0000000000000000   F   F   F
  0.6666666666789069  0.0000000000000000  0.0000000000000000   F   F   F
  0.6666666666789069  0.3333333332935382  0.0000000000000000   F   F   F
  0.6666666666789069  0.6666666666789069  0.0000000000000000   F   F   F
  0.1666666666467691  0.1666666666467691  0.0000000000000000   F   F   F
  0.1666666666467691  0.4999999999403144  0.0000000000000000   F   F   F
  0.1666666666467691  0.8333333333256832  0.0000000000000000   F   F   F
  0.4999999999403144  0.1666666666467691  0.0000000000000000   F   F   F
  0.4999999999403144  0.4999999999403144  0.0000000000000000   F   F   F
  0.4999999999403144  0.8333333333256832  0.0000000000000000   F   F   F
  0.8333333333256832  0.1666666666467691  0.0000000000000000   F   F   F
  0.8333333333256832  0.4999999999403144  0.0000000000000000   F   F   F
  0.8333333333256832  0.8333333333256832  0.0000000000000000   F   F   F
  0.0000000000000000  0.1666666666467691  0.0655116416169861   F   F   F
  0.0000000000000000  0.4999999999403144  0.0655116416169861   F   F   F
  0.0000000000000000  0.8333333333256832  0.0655116416169861   F   F   F
  0.3333333332935382  0.1666666666467691  0.0655116416169861   F   F   F
  0.3333333332935382  0.4999999999403144  0.0655116416169861   F   F   F
  0.3333333332935382  0.8333333333256832  0.0655116416169861   F   F   F
  0.6666666666789069  0.1666666666467691  0.0655116416169861   F   F   F
  0.6666666666789069  0.4999999999403144  0.0655116416169861   F   F   F
  0.6666666666789069  0.8333333333256832  0.0655116416169861   F   F   F
  0.1666666666467691  0.0000000000000000  0.0655116416169861   F   F   F
  0.1666666666467691  0.3333333332935382  0.0655116416169861   F   F   F
  0.1666666666467691  0.6666666666789069  0.0655116416169861   F   F   F
  0.4999999999403144  0.0000000000000000  0.0655116416169861   F   F   F
  0.4999999999403144  0.3333333332935382  0.0655116416169861   F   F   F
  0.4999999999403144  0.6666666666789069  0.0655116416169861   F   F   F
  0.8333333333256832  0.0000000000000000  0.0655116416169861   F   F   F
  0.8333333333256832  0.3333333332935382  0.0655116416169861   F   F   F
  0.8333333333256832  0.6666666666789069  0.0655116416169861   F   F   F
  0.0000000000000000  0.0000000000000000  0.1311955341119244   F   F   F
  0.0000000000000000  0.3333333332935382  0.1311955341119244   F   F   F
  0.0000000000000000  0.6666666666789069  0.1311955341119244   F   F   F
  0.3333333332935382  0.0000000000000000  0.1311955341119244   F   F   F
  0.3333333332935382  0.3333333332935382  0.1311955341119244   F   F   F
  0.3333333332935382  0.6666666666789069  0.1311955341119244   F   F   F
  0.6666666666789069  0.0000000000000000  0.1311955341119244   F   F   F
  0.6666666666789069  0.3333333332935382  0.1311955341119244   F   F   F
  0.6666666666789069  0.6666666666789069  0.1311955341119244   F   F   F
  0.1666666666467691  0.1666666666467691  0.1311955341119244   F   F   F
  0.1666666666467691  0.4999999999403144  0.1311955341119244   F   F   F
  0.1666666666467691  0.8333333333256832  0.1311955341119244   F   F   F
  0.4999999999403144  0.1666666666467691  0.1311955341119244   F   F   F
  0.4999999999403144  0.4999999999403144  0.1311955341119244   F   F   F
  0.4999999999403144  0.8333333333256832  0.1311955341119244   F   F   F
  0.8333333333256832  0.1666666666467691  0.1311955341119244   F   F   F
  0.8333333333256832  0.4999999999403144  0.1311955341119244   F   F   F
  0.8333333333256832  0.8333333333256832  0.1311955341119244   F   F   F
  0.0000934206851374  0.1667600873319066  0.1944122801560225   T   T   T
  0.0003225999556141  0.4999999999403144  0.1943987985478655   T   T   T
  0.0000934206851374  0.8332399126405455  0.1944122801560225   T   T   T
  0.3333333332935382  0.1669892666023832  0.1943987985478655   T   T   T
  0.3333333332935382  0.4999999999403144  0.1944885142491528   T   T   T
  0.3333333332935382  0.8330107333700689  0.1943987985478655   T   T   T
  0.6665732459937693  0.1667600873319066  0.1944122801560225   T   T   T
  0.6663440667232927  0.4999999999403144  0.1943987985478655   T   T   T
  0.6665732459937693  0.8332399126405455  0.1944122801560225   T   T   T
  0.1665654359862417 -0.0000000000000000  0.1944433819374559   T   T   T
  0.1668204666831331  0.3334871333299021  0.1944882814906877   T   T   T
  0.1668204666831331  0.6665128666425427  0.1944882814906877   T   T   T
  0.5001012306008417 -0.0000000000000000  0.1944433819374559   T   T   T
  0.4998461999039505  0.3334871333299021  0.1944882814906877   T   T   T
  0.4998461999039505  0.6665128666425427  0.1944882814906877   T   T   T
  0.8333333333256832 -0.0000000000000000  0.1943132863699767   T   T   T
  0.8333333333256832  0.3332321026330108  0.1944433819374559   T   T   T
  0.8333333333256832  0.6667678973394342  0.1944433819374559   T   T   T
 -0.0000671452984838 -0.0000000000000000  0.2575440631474680   T   T   T
 -0.0002562162059100  0.3333298527831868  0.2575910010073241   T   T   T
 -0.0002562162059100  0.6666701471892584  0.2575910010073241   T   T   T
  0.3333333332935382 -0.0000000000000000  0.2573982964455208   T   T   T
  0.3333333332935382  0.3333756021537229  0.2578335893115917   T   T   T
  0.3333333332935382  0.6666243978187223  0.2578335893115917   T   T   T
  0.6667338119773909 -0.0000000000000000  0.2575440631474680   T   T   T
  0.6669228828848170  0.3333298527831868  0.2575910010073241   T   T   T
  0.6669228828848170  0.6666701471892584  0.2575910010073241   T   T   T
  0.1666631861364177  0.1664104504408591  0.2575910010073241   T   T   T
  0.1667089355069538  0.4999999999403144  0.2578335893115917   T   T   T
  0.1666631861364177  0.8335895495315933  0.2575910010073241   T   T   T
  0.5000034804506658  0.1664104504408591  0.2575910010073241   T   T   T
  0.4999577310801298  0.4999999999403144  0.2578335893115917   T   T   T
  0.5000034804506658  0.8335895495315933  0.2575910010073241   T   T   T
  0.8333333333256832  0.1665995213482853  0.2575440631474680   T   T   T
  0.8333333333256832  0.4999999999403144  0.2573982964455208   T   T   T
  0.8333333333256832  0.8334004786241671  0.2575440631474680   T   T   T
 -0.0001856327991642  0.1664810338476049  0.3209798052793764   T   T   T
 -0.0007574627870155  0.4999999999403144  0.3207234850500839   T   T   T
 -0.0001856327991642  0.8335189661248472  0.3209798052793764   T   T   T
  0.3333333332935382  0.1659092038597536  0.3207234850500839   T   T   T
  0.3333333332935382  0.4999999999403144  0.3211734031779795   T   T   T
  0.3333333332935382  0.8340907961126987  0.3207234850500839   T   T   T
  0.6668522994780710  0.1664810338476049  0.3209798052793764   T   T   T
  0.6674241294659224  0.4999999999403144  0.3207234850500839   T   T   T
  0.6668522994780710  0.8335189661248472  0.3209798052793764   T   T   T
  0.1661939970348436 -0.0000000000000000  0.3210922585095653   T   T   T
  0.1658598624642246  0.3325265291109937  0.3207147080185103   T   T   T
  0.1658598624642246  0.6674734708614515  0.3207147080185103   T   T   T
  0.5004726695522396 -0.0000000000000000  0.3210922585095653   T   T   T
  0.5008068041228589  0.3325265291109937  0.3207147080185103   T   T   T
  0.5008068041228589  0.6674734708614515  0.3207147080185103   T   T   T
  0.8333333333256832 -0.0000000000000000  0.3209630184257342   T   T   T
  0.8333333333256832  0.3328606636816128  0.3210922585095653   T   T   T
  0.8333333333256832  0.6671393362908321  0.3210922585095653   T   T   T
 -0.0000123230739784 -0.0000000000000000  0.3849080196424601   T   T   T
  0.0006029177670239  0.3334218391093606  0.3852317648400092   T   T   T
  0.0006029177670239  0.6665781608630845  0.3852317648400092   T   T   T
  0.3333333332935382 -0.0000000000000000  0.3846790453990520   T   T   T
  0.3333333332935382  0.3323965569007342  0.3837755757546516   T   T   T
  0.3333333332935382  0.6676034430717110  0.3837755757546516   T   T   T
  0.6666789897528854 -0.0000000000000000  0.3849080196424601   T   T   T
  0.6660637489118830  0.3334218391093606  0.3852317648400092   T   T   T
  0.6660637489118830  0.6665781608630845  0.3852317648400092   T   T   T
  0.1667551724625915  0.1672695844137929  0.3852317648400092   T   T   T
  0.1657298902539652  0.4999999999403144  0.3837755757546516   T   T   T
  0.1667551724625915  0.8327304155586592  0.3852317648400092   T   T   T
  0.4999114941244920  0.1672695844137929  0.3852317648400092   T   T   T
  0.5009367763331185  0.4999999999403144  0.3837755757546516   T   T   T
  0.4999114941244920  0.8327304155586592  0.3852317648400092   T   T   T
  0.8333333333256832  0.1666543435727907  0.3849080196424601   T   T   T
  0.8333333333256832  0.4999999999403144  0.3846790453990520   T   T   T
  0.8333333333256832  0.8333456563996616  0.3849080196424601   T   T   T
  0.0002260316112373  0.1668926982580064  0.4476108710133805   T   T   T
 -0.0019921556749871  0.4999999999403144  0.4471864178484234   T   T   T
  0.0002260316112373  0.8331073017144458  0.4476108710133805   T   T   T
  0.3333333332935382  0.1646745109717820  0.4471864178484234   T   T   T
  0.3333333332935382  0.4999999999403144  0.4450308515340209   T   T   T
  0.3333333332935382  0.8353254890006703  0.4471864178484234   T   T   T
  0.6664406350676696  0.1668926982580064  0.4476108710133805   T   T   T
  0.6686588223538941  0.4999999999403144  0.4471864178484234   T   T   T
  0.6664406350676696  0.8331073017144458  0.4476108710133805   T   T   T
  0.1659285012124731 -0.0000000000000000  0.4476746131514981   T   T   T
  0.1672933114596020  0.3339599781063711  0.4484400647998991   T   T   T
  0.1672933114596020  0.6660400218660740  0.4484400647998991   T   T   T
  0.5007381653746104 -0.0000000000000000  0.4476746131514981   T   T   T
  0.4993733551274816  0.3339599781063711  0.4484400647998991   T   T   T
  0.4993733551274816  0.6660400218660740  0.4484400647998991   T   T   T
  0.8333333333256832 -0.0000000000000000  0.4474279282856150   T   T   T
  0.8333333333256832  0.3325951678592423  0.4476746131514981   T   T   T
  0.8333333333256832  0.6674048321132029  0.4476746131514981   T   T   T
  0.3333333332935382  0.4999999999403144  0.5074390078300687   T   T   T
 
  0.00000000E+00  0.00000000E+00  0.00000000E+00
  0.00000000E+00  0.00000000E+00  0.00000000E+00
  0.00000000E+00  0.00000000E+00  0.00000000E+00
  0.00000000E+00  0.00000000E+00  0.00000000E+00
  0.00000000E+00  0.00000000E+00  0.00000000E+00
  0.00000000E+00  0.00000000E+00  0.00000000E+00
  0.00000000E+00  0.00000000E+00  0.00000000E+00
  0.00000000E+00  0.00000000E+00  0.00000000E+00
  0.00000000E+00  0.00000000E+00  0.00000000E+00
  0.00000000E+00  0.00000000E+00  0.00000000E+00
  0.00000000E+00  0.00000000E+00  0.00000000E+00
  0.00000000E+00  0.00000000E+00  0.00000000E+00
  0.00000000E+00  0.00000000E+00  0.00000000E+00
  0.00000000E+00  0.00000000E+00  0.00000000E+00
  0.00000000E+00  0.00000000E+00  0.00000000E+00
  0.00000000E+00  0.00000000E+00  0.00000000E+00
  0.00000000E+00  0.00000000E+00  0.00000000E+00
  0.00000000E+00  0.00000000E+00  0.00000000E+00
  0.00000000E+00  0.00000000E+00  0.00000000E+00
  0.00000000E+00  0.00000000E+00  0.00000000E+00
  0.00000000E+00  0.00000000E+00  0.00000000E+00
  0.00000000E+00  0.00000000E+00  0.00000000E+00
  0.00000000E+00  0.00000000E+00  0.00000000E+00
  0.00000000E+00  0.00000000E+00  0.00000000E+00
  0.00000000E+00  0.00000000E+00  0.00000000E+00
  0.00000000E+00  0.00000000E+00  0.00000000E+00
  0.00000000E+00  0.00000000E+00  0.00000000E+00
  0.00000000E+00  0.00000000E+00  0.00000000E+00
  0.00000000E+00  0.00000000E+00  0.00000000E+00
  0.00000000E+00  0.00000000E+00  0.00000000E+00
  0.00000000E+00  0.00000000E+00  0.00000000E+00
  0.00000000E+00  0.00000000E+00  0.00000000E+00
  0.00000000E+00  0.00000000E+00  0.00000000E+00
  0.00000000E+00  0.00000000E+00  0.00000000E+00
  0.00000000E+00  0.00000000E+00  0.00000000E+00
  0.00000000E+00  0.00000000E+00  0.00000000E+00
  0.00000000E+00  0.00000000E+00  0.00000000E+00
  0.00000000E+00  0.00000000E+00  0.00000000E+00
  0.00000000E+00  0.00000000E+00  0.00000000E+00
  0.00000000E+00  0.00000000E+00  0.00000000E+00
  0.00000000E+00  0.00000000E+00  0.00000000E+00
  0.00000000E+00  0.00000000E+00  0.00000000E+00
  0.00000000E+00  0.00000000E+00  0.00000000E+00
  0.00000000E+00  0.00000000E+00  0.00000000E+00
  0.00000000E+00  0.00000000E+00  0.00000000E+00
  0.00000000E+00  0.00000000E+00  0.00000000E+00
  0.00000000E+00  0.00000000E+00  0.00000000E+00
  0.00000000E+00  0.00000000E+00  0.00000000E+00
  0.00000000E+00  0.00000000E+00  0.00000000E+00
  0.00000000E+00  0.00000000E+00  0.00000000E+00
  0.00000000E+00  0.00000000E+00  0.00000000E+00
  0.00000000E+00  0.00000000E+00  0.00000000E+00
  0.00000000E+00  0.00000000E+00  0.00000000E+00
  0.00000000E+00  0.00000000E+00  0.00000000E+00
  0.00000000E+00  0.00000000E+00  0.00000000E+00
  0.00000000E+00  0.00000000E+00  0.00000000E+00
  0.00000000E+00  0.00000000E+00  0.00000000E+00
  0.00000000E+00  0.00000000E+00  0.00000000E+00
  0.00000000E+00  0.00000000E+00  0.00000000E+00
  0.00000000E+00  0.00000000E+00  0.00000000E+00
  0.00000000E+00  0.00000000E+00  0.00000000E+00
  0.00000000E+00  0.00000000E+00  0.00000000E+00
  0.00000000E+00  0.00000000E+00  0.00000000E+00
  0.00000000E+00  0.00000000E+00  0.00000000E+00
  0.00000000E+00  0.00000000E+00  0.00000000E+00
  0.00000000E+00  0.00000000E+00  0.00000000E+00
  0.00000000E+00  0.00000000E+00  0.00000000E+00
  0.00000000E+00  0.00000000E+00  0.00000000E+00
  0.00000000E+00  0.00000000E+00  0.00000000E+00
  0.00000000E+00  0.00000000E+00  0.00000000E+00
  0.00000000E+00  0.00000000E+00  0.00000000E+00
  0.00000000E+00  0.00000000E+00  0.00000000E+00
  0.00000000E+00  0.00000000E+00  0.00000000E+00
  0.00000000E+00  0.00000000E+00  0.00000000E+00
  0.00000000E+00  0.00000000E+00  0.00000000E+00
  0.00000000E+00  0.00000000E+00  0.00000000E+00
  0.00000000E+00  0.00000000E+00  0.00000000E+00
  0.00000000E+00  0.00000000E+00  0.00000000E+00
  0.00000000E+00  0.00000000E+00  0.00000000E+00
  0.00000000E+00  0.00000000E+00  0.00000000E+00
  0.00000000E+00  0.00000000E+00  0.00000000E+00
  0.00000000E+00  0.00000000E+00  0.00000000E+00
  0.00000000E+00  0.00000000E+00  0.00000000E+00
  0.00000000E+00  0.00000000E+00  0.00000000E+00
  0.00000000E+00  0.00000000E+00  0.00000000E+00
  0.00000000E+00  0.00000000E+00  0.00000000E+00
  0.00000000E+00  0.00000000E+00  0.00000000E+00
  0.00000000E+00  0.00000000E+00  0.00000000E+00
  0.00000000E+00  0.00000000E+00  0.00000000E+00
  0.00000000E+00  0.00000000E+00  0.00000000E+00
  0.00000000E+00  0.00000000E+00  0.00000000E+00
  0.00000000E+00  0.00000000E+00  0.00000000E+00
  0.00000000E+00  0.00000000E+00  0.00000000E+00
  0.00000000E+00  0.00000000E+00  0.00000000E+00
  0.00000000E+00  0.00000000E+00  0.00000000E+00
  0.00000000E+00  0.00000000E+00  0.00000000E+00
  0.00000000E+00  0.00000000E+00  0.00000000E+00
  0.00000000E+00  0.00000000E+00  0.00000000E+00
  0.00000000E+00  0.00000000E+00  0.00000000E+00
  0.00000000E+00  0.00000000E+00  0.00000000E+00
  0.00000000E+00  0.00000000E+00  0.00000000E+00
  0.00000000E+00  0.00000000E+00  0.00000000E+00
  0.00000000E+00  0.00000000E+00  0.00000000E+00
  0.00000000E+00  0.00000000E+00  0.00000000E+00
  0.00000000E+00  0.00000000E+00  0.00000000E+00
  0.00000000E+00  0.00000000E+00  0.00000000E+00
  0.00000000E+00  0.00000000E+00  0.00000000E+00
  0.00000000E+00  0.00000000E+00  0.00000000E+00
  0.00000000E+00  0.00000000E+00  0.00000000E+00
  0.00000000E+00  0.00000000E+00  0.00000000E+00
  0.00000000E+00  0.00000000E+00  0.00000000E+00
  0.00000000E+00  0.00000000E+00  0.00000000E+00
  0.00000000E+00  0.00000000E+00  0.00000000E+00
  0.00000000E+00  0.00000000E+00  0.00000000E+00
  0.00000000E+00  0.00000000E+00  0.00000000E+00
  0.00000000E+00  0.00000000E+00  0.00000000E+00
  0.00000000E+00  0.00000000E+00  0.00000000E+00
  0.00000000E+00  0.00000000E+00  0.00000000E+00
  0.00000000E+00  0.00000000E+00  0.00000000E+00
  0.00000000E+00  0.00000000E+00  0.00000000E+00
  0.00000000E+00  0.00000000E+00  0.00000000E+00
  0.00000000E+00  0.00000000E+00  0.00000000E+00
  0.00000000E+00  0.00000000E+00  0.00000000E+00
  0.00000000E+00  0.00000000E+00  0.00000000E+00
  0.00000000E+00  0.00000000E+00  0.00000000E+00
  0.00000000E+00  0.00000000E+00  0.00000000E+00
  0.00000000E+00  0.00000000E+00  0.00000000E+00
  0.00000000E+00  0.00000000E+00  0.00000000E+00
  0.00000000E+00  0.00000000E+00  0.00000000E+00
  0.00000000E+00  0.00000000E+00  0.00000000E+00
  0.00000000E+00  0.00000000E+00  0.00000000E+00
  0.00000000E+00  0.00000000E+00  0.00000000E+00
  0.00000000E+00  0.00000000E+00  0.00000000E+00
  0.00000000E+00  0.00000000E+00  0.00000000E+00
  0.00000000E+00  0.00000000E+00  0.00000000E+00
  0.00000000E+00  0.00000000E+00  0.00000000E+00
  0.00000000E+00  0.00000000E+00  0.00000000E+00
  0.00000000E+00  0.00000000E+00  0.00000000E+00
  0.00000000E+00  0.00000000E+00  0.00000000E+00
  0.00000000E+00  0.00000000E+00  0.00000000E+00
  0.00000000E+00  0.00000000E+00  0.00000000E+00
  0.00000000E+00  0.00000000E+00  0.00000000E+00
  0.00000000E+00  0.00000000E+00  0.00000000E+00
  0.00000000E+00  0.00000000E+00  0.00000000E+00
  0.00000000E+00  0.00000000E+00  0.00000000E+00
