FCC Cu                                  
   1.00000000000000     
     3.6300001144000000    0.0000000000000000    0.0000000000000000
     0.0000000000000000    2.5667977333000001    0.0000000000000000
     0.0000000000000000    0.0000000000000000   23.9837913512999990
   Cu   H 
     8     2
Direct
  0.0000000000000000 -0.0008679556850838 -0.0007738764661797
  0.4999999999449045  0.4953223750629207  0.0464732636504919
  0.0000000000000000 -0.0159309259049918  0.1006485725252738
  0.4999999999449045  0.4717877856282532  0.1529522558174419
  0.0000000000000000 -0.0393987250551537  0.2055886076816708
  0.4999999999449045  0.4498642739748263  0.2580993105564267
  0.0000000000000000 -0.0652019001177282  0.3121043997205857
  0.4999999999449045  0.4273944371227403  0.3593978818746180
  0.4999999998347207  0.1592840337892138  0.4430325893337029
  0.4999999998347207  0.3232562343445039  0.4698007338955620
 
  0.00000000E+00  0.00000000E+00  0.00000000E+00
  0.00000000E+00  0.00000000E+00  0.00000000E+00
  0.00000000E+00  0.00000000E+00  0.00000000E+00
  0.00000000E+00  0.00000000E+00  0.00000000E+00
  0.00000000E+00  0.00000000E+00  0.00000000E+00
  0.00000000E+00  0.00000000E+00  0.00000000E+00
  0.00000000E+00  0.00000000E+00  0.00000000E+00
  0.00000000E+00  0.00000000E+00  0.00000000E+00
  0.00000000E+00  0.00000000E+00  0.00000000E+00
  0.00000000E+00  0.00000000E+00  0.00000000E+00
