FCC Cu                                  
   1.00000000000000     
    10.8900003433000006    0.0000000000000000    0.0000000000000000
     0.0000000000000000   10.8900003433000006    0.0000000000000000
     0.0000000000000000    0.0000000000000000   27.7049999237000009
   Cu   H 
   144     2
Selective dynamics
Direct
  0.0000000000000000  0.0000000000000000  0.0000000000000000   F   F   F
  0.0000000000000000  0.3333333332935382  0.0000000000000000   F   F   F
  0.0000000000000000  0.6666666666789069  0.0000000000000000   F   F   F
  0.3333333332935382  0.0000000000000000  0.0000000000000000   F   F   F
  0.3333333332935382  0.3333333332935382  0.0000000000000000   F   F   F
  0.3333333332935382  0.6666666666789069  0.0000000000000000   F   F   F
  0.6666666666789069  0.0000000000000000  0.0000000000000000   F   F   F
  0.6666666666789069  0.3333333332935382  0.0000000000000000   F   F   F
  0.6666666666789069  0.6666666666789069  0.0000000000000000   F   F   F
  0.1666666666467691  0.1666666666467691  0.0000000000000000   F   F   F
  0.1666666666467691  0.4999999999403144  0.0000000000000000   F   F   F
  0.1666666666467691  0.8333333333256832  0.0000000000000000   F   F   F
  0.4999999999403144  0.1666666666467691  0.0000000000000000   F   F   F
  0.4999999999403144  0.4999999999403144  0.0000000000000000   F   F   F
  0.4999999999403144  0.8333333333256832  0.0000000000000000   F   F   F
  0.8333333333256832  0.1666666666467691  0.0000000000000000   F   F   F
  0.8333333333256832  0.4999999999403144  0.0000000000000000   F   F   F
  0.8333333333256832  0.8333333333256832  0.0000000000000000   F   F   F
  0.0000000000000000  0.1666666666467691  0.0655116416169861   F   F   F
  0.0000000000000000  0.4999999999403144  0.0655116416169861   F   F   F
  0.0000000000000000  0.8333333333256832  0.0655116416169861   F   F   F
  0.3333333332935382  0.1666666666467691  0.0655116416169861   F   F   F
  0.3333333332935382  0.4999999999403144  0.0655116416169861   F   F   F
  0.3333333332935382  0.8333333333256832  0.0655116416169861   F   F   F
  0.6666666666789069  0.1666666666467691  0.0655116416169861   F   F   F
  0.6666666666789069  0.4999999999403144  0.0655116416169861   F   F   F
  0.6666666666789069  0.8333333333256832  0.0655116416169861   F   F   F
  0.1666666666467691  0.0000000000000000  0.0655116416169861   F   F   F
  0.1666666666467691  0.3333333332935382  0.0655116416169861   F   F   F
  0.1666666666467691  0.6666666666789069  0.0655116416169861   F   F   F
  0.4999999999403144  0.0000000000000000  0.0655116416169861   F   F   F
  0.4999999999403144  0.3333333332935382  0.0655116416169861   F   F   F
  0.4999999999403144  0.6666666666789069  0.0655116416169861   F   F   F
  0.8333333333256832  0.0000000000000000  0.0655116416169861   F   F   F
  0.8333333333256832  0.3333333332935382  0.0655116416169861   F   F   F
  0.8333333333256832  0.6666666666789069  0.0655116416169861   F   F   F
  0.0000000000000000  0.0000000000000000  0.1311955341119244   F   F   F
  0.0000000000000000  0.3333333332935382  0.1311955341119244   F   F   F
  0.0000000000000000  0.6666666666789069  0.1311955341119244   F   F   F
  0.3333333332935382  0.0000000000000000  0.1311955341119244   F   F   F
  0.3333333332935382  0.3333333332935382  0.1311955341119244   F   F   F
  0.3333333332935382  0.6666666666789069  0.1311955341119244   F   F   F
  0.6666666666789069  0.0000000000000000  0.1311955341119244   F   F   F
  0.6666666666789069  0.3333333332935382  0.1311955341119244   F   F   F
  0.6666666666789069  0.6666666666789069  0.1311955341119244   F   F   F
  0.1666666666467691  0.1666666666467691  0.1311955341119244   F   F   F
  0.1666666666467691  0.4999999999403144  0.1311955341119244   F   F   F
  0.1666666666467691  0.8333333333256832  0.1311955341119244   F   F   F
  0.4999999999403144  0.1666666666467691  0.1311955341119244   F   F   F
  0.4999999999403144  0.4999999999403144  0.1311955341119244   F   F   F
  0.4999999999403144  0.8333333333256832  0.1311955341119244   F   F   F
  0.8333333333256832  0.1666666666467691  0.1311955341119244   F   F   F
  0.8333333333256832  0.4999999999403144  0.1311955341119244   F   F   F
  0.8333333333256832  0.8333333333256832  0.1311955341119244   F   F   F
 -0.0000001728167426  0.1667328087830452  0.1942604004792473   T   T   T
  0.0001149938923241  0.5000508049428087  0.1943111121358850   T   T   T
  0.0000067995811867  0.8333933647696119  0.1942622997032102   T   T   T
  0.3333333332935382  0.1668337824033391  0.1943074033766004   T   T   T
  0.3333333332935382  0.5000582472476974  0.1942424780232531   T   T   T
  0.3333333332935382  0.8332966343071544  0.1943337200018289   T   T   T
  0.6666668394956495  0.1667328087830452  0.1942604004792473   T   T   T
  0.6665516727865828  0.5000508049428087  0.1943111121358850   T   T   T
  0.6666598670977200  0.8333933647696119  0.1942622997032102   T   T   T
  0.1666756233855501  0.0000624857257431  0.1941875823372399   T   T   T
  0.1667236816152846  0.3334464648191005  0.1943180932346564   T   T   T
  0.1667303492459503  0.6666670740489125  0.1943177826182307   T   T   T
  0.4999910432015334  0.0000624857257431  0.1941875823372399   T   T   T
  0.4999429849717988  0.3334464648191005  0.1943180932346564   T   T   T
  0.4999363173411331  0.6666670740489125  0.1943177826182307   T   T   T
  0.8333333333256832  0.0000730421299969  0.1942980133684183   T   T   T
  0.8333333333256832  0.3333848240466715  0.1941979178899308   T   T   T
  0.8333333333256832  0.6667210038848779  0.1941935063924715   T   T   T
  0.0000809148455007  0.0001231974752909  0.2572643457102364   T   T   T
  0.0000595618955350  0.3335032846773058  0.2572846207983499   T   T   T
  0.0000425691461351  0.6666652436399132  0.2572726629453874   T   T   T
  0.3333333332935382  0.0001664008890759  0.2573649675422889   T   T   T
  0.3333333332935382  0.3334868025857707  0.2573897067165186   T   T   T
  0.3333333332935382  0.6666814256099176  0.2574034658115276   T   T   T
  0.6665857518334063  0.0001231974752909  0.2572643457102364   T   T   T
  0.6666071047833725  0.3335032846773058  0.2572846207983499   T   T   T
  0.6666240975327722  0.6666652436399132  0.2572726629453874   T   T   T
  0.1667706557621105  0.1668234519951277  0.2572746412036903   T   T   T
  0.1667577775535018  0.5000725897895425  0.2573891097208406   T   T   T
  0.1667568065443845  0.8333974169016134  0.2572654210203268   T   T   T
  0.4998960108249732  0.1668234519951277  0.2572746412036903   T   T   T
  0.4999088890335818  0.5000725897895425  0.2573891097208406   T   T   T
  0.4999098600426991  0.8333974169016134  0.2572654210203268   T   T   T
  0.8333333333256832  0.1668475074576398  0.2572650199516527   T   T   T
  0.8333333333256832  0.5000731085522514  0.2573448866292913   T   T   T
  0.8333333333256832  0.8333753577714065  0.2572617771352065   T   T   T
  0.0001820158538311  0.1670039496539938  0.3203347072094221   T   T   T
  0.0005649083612405  0.5000824522706960  0.3205139968583351   T   T   T
  0.0001618449150406  0.8333204840273634  0.3203038920531164   T   T   T
  0.3333333332935382  0.1674674655606903  0.3205977281056427   T   T   T
  0.3333333332935382  0.5000787814538833  0.3205700972421949   T   T   T
  0.3333333332935382  0.8329829995136779  0.3205237040977004   T   T   T
  0.6664846508250760  0.1670039496539938  0.3203347072094221   T   T   T
  0.6661017583176666  0.5000824522706960  0.3205139968583351   T   T   T
  0.6665048217638664  0.8333204840273634  0.3203038920531164   T   T   T
  0.1668948109475183  0.0001772859293836  0.3203040317249938   T   T   T
  0.1668902290882141  0.3336288189339893  0.3205294055281136   T   T   T
  0.1668447072781502  0.6666086181534313  0.3204821290716845   T   T   T
  0.4997718556395652  0.0001772859293836  0.3203040317249938   T   T   T
  0.4997764374988695  0.3336288189339893  0.3205294055281136   T   T   T
  0.4998219593089334  0.6666086181534313  0.3204821290716845   T   T   T
  0.8333333333256832  0.0001687787703489  0.3202391534173403   T   T   T
  0.8333333333256832  0.3336627321109377  0.3203413483753129   T   T   T
  0.8333333333256832  0.6665690112762191  0.3202994936063456   T   T   T
  0.0000984273746727  0.0001831633499289  0.3839313749275611   T   T   T
 -0.0000086916462994  0.3335253433417930  0.3841076125563511   T   T   T
 -0.0001442418362418  0.6667775955034393  0.3840207684517388   T   T   T
  0.3333333332935382  0.0002524276626279  0.3841045681636444   T   T   T
  0.3333333332935382  0.3350018203298089  0.3850573988278767   T   T   T
  0.3333333332935382  0.6655138142976228  0.3848581853123182   T   T   T
  0.6665682393042343  0.0001831633499289  0.3839313749275611   T   T   T
  0.6666753583252063  0.3335253433417930  0.3841076125563511   T   T   T
  0.6668109085151483  0.6667775955034393  0.3840207684517388   T   T   T
  0.1667363020682021  0.1667100281111968  0.3840768941652533   T   T   T
  0.1679463495353053  0.5001620360181241  0.3848908544397344   T   T   T
  0.1667157240158700  0.8337127769075678  0.3839952358974791   T   T   T
  0.4999303645188817  0.1667100281111968  0.3840768941652533   T   T   T
  0.4987203170517781  0.5001620360181241  0.3848908544397344   T   T   T
  0.4999509425712135  0.8337127769075678  0.3839952358974791   T   T   T
  0.8333333333256832  0.1669414075955951  0.3839451264871235   T   T   T
  0.8333333333256832  0.5001148946198564  0.3840238947788518   T   T   T
  0.8333333333256832  0.8334126343443172  0.3839011324000094   T   T   T
 -0.0003805254161578  0.1664192258975252  0.4466677646876311   T   T   T
 -0.0000470232889843  0.5001976149631709  0.4466509248323049   T   T   T
 -0.0004366625016966  0.8339220323582127  0.4466329749330473   T   T   T
  0.3333333332935382  0.1668719085117876  0.4468102466893513   T   T   T
  0.3333333332935382  0.5002679808275301  0.4503704288812564   T   T   T
  0.3333333332935382  0.8334557973929491  0.4466945118703313   T   T   T
  0.6670471920950649  0.1664192258975252  0.4466677646876311   T   T   T
  0.6667136899678916  0.5001976149631709  0.4466509248323049   T   T   T
  0.6671033291806038  0.8339220323582127  0.4466329749330473   T   T   T
  0.1666206618481023  0.0001262177505862  0.4466967924031895   T   T   T
  0.1654182120059002  0.3320240772546562  0.4467890206008460   T   T   T
  0.1650690756857193  0.6686348489384925  0.4465713661811950   T   T   T
  0.5000460047389811  0.0001262177505862  0.4466967924031895   T   T   T
  0.5012484545811836  0.3320240772546562  0.4467890206008460   T   T   T
  0.5015975909013641  0.6686348489384925  0.4465713661811950   T   T   T
  0.8333333333256832  0.0001468352019168  0.4465657358677807   T   T   T
  0.8333333333256832  0.3334561523520224  0.4466982699815831   T   T   T
  0.8333333333256832  0.6668719510410075  0.4466698501428461   T   T   T
  0.3333333332935382  0.4754894154986374  0.5169953004456560   T   T   T
  0.3333333332935382  0.5480167568686878  0.5143984525996005   T   T   T
 
  0.00000000E+00  0.00000000E+00  0.00000000E+00
  0.00000000E+00  0.00000000E+00  0.00000000E+00
  0.00000000E+00  0.00000000E+00  0.00000000E+00
  0.00000000E+00  0.00000000E+00  0.00000000E+00
  0.00000000E+00  0.00000000E+00  0.00000000E+00
  0.00000000E+00  0.00000000E+00  0.00000000E+00
  0.00000000E+00  0.00000000E+00  0.00000000E+00
  0.00000000E+00  0.00000000E+00  0.00000000E+00
  0.00000000E+00  0.00000000E+00  0.00000000E+00
  0.00000000E+00  0.00000000E+00  0.00000000E+00
  0.00000000E+00  0.00000000E+00  0.00000000E+00
  0.00000000E+00  0.00000000E+00  0.00000000E+00
  0.00000000E+00  0.00000000E+00  0.00000000E+00
  0.00000000E+00  0.00000000E+00  0.00000000E+00
  0.00000000E+00  0.00000000E+00  0.00000000E+00
  0.00000000E+00  0.00000000E+00  0.00000000E+00
  0.00000000E+00  0.00000000E+00  0.00000000E+00
  0.00000000E+00  0.00000000E+00  0.00000000E+00
  0.00000000E+00  0.00000000E+00  0.00000000E+00
  0.00000000E+00  0.00000000E+00  0.00000000E+00
  0.00000000E+00  0.00000000E+00  0.00000000E+00
  0.00000000E+00  0.00000000E+00  0.00000000E+00
  0.00000000E+00  0.00000000E+00  0.00000000E+00
  0.00000000E+00  0.00000000E+00  0.00000000E+00
  0.00000000E+00  0.00000000E+00  0.00000000E+00
  0.00000000E+00  0.00000000E+00  0.00000000E+00
  0.00000000E+00  0.00000000E+00  0.00000000E+00
  0.00000000E+00  0.00000000E+00  0.00000000E+00
  0.00000000E+00  0.00000000E+00  0.00000000E+00
  0.00000000E+00  0.00000000E+00  0.00000000E+00
  0.00000000E+00  0.00000000E+00  0.00000000E+00
  0.00000000E+00  0.00000000E+00  0.00000000E+00
  0.00000000E+00  0.00000000E+00  0.00000000E+00
  0.00000000E+00  0.00000000E+00  0.00000000E+00
  0.00000000E+00  0.00000000E+00  0.00000000E+00
  0.00000000E+00  0.00000000E+00  0.00000000E+00
  0.00000000E+00  0.00000000E+00  0.00000000E+00
  0.00000000E+00  0.00000000E+00  0.00000000E+00
  0.00000000E+00  0.00000000E+00  0.00000000E+00
  0.00000000E+00  0.00000000E+00  0.00000000E+00
  0.00000000E+00  0.00000000E+00  0.00000000E+00
  0.00000000E+00  0.00000000E+00  0.00000000E+00
  0.00000000E+00  0.00000000E+00  0.00000000E+00
  0.00000000E+00  0.00000000E+00  0.00000000E+00
  0.00000000E+00  0.00000000E+00  0.00000000E+00
  0.00000000E+00  0.00000000E+00  0.00000000E+00
  0.00000000E+00  0.00000000E+00  0.00000000E+00
  0.00000000E+00  0.00000000E+00  0.00000000E+00
  0.00000000E+00  0.00000000E+00  0.00000000E+00
  0.00000000E+00  0.00000000E+00  0.00000000E+00
  0.00000000E+00  0.00000000E+00  0.00000000E+00
  0.00000000E+00  0.00000000E+00  0.00000000E+00
  0.00000000E+00  0.00000000E+00  0.00000000E+00
  0.00000000E+00  0.00000000E+00  0.00000000E+00
  0.00000000E+00  0.00000000E+00  0.00000000E+00
  0.00000000E+00  0.00000000E+00  0.00000000E+00
  0.00000000E+00  0.00000000E+00  0.00000000E+00
  0.00000000E+00  0.00000000E+00  0.00000000E+00
  0.00000000E+00  0.00000000E+00  0.00000000E+00
  0.00000000E+00  0.00000000E+00  0.00000000E+00
  0.00000000E+00  0.00000000E+00  0.00000000E+00
  0.00000000E+00  0.00000000E+00  0.00000000E+00
  0.00000000E+00  0.00000000E+00  0.00000000E+00
  0.00000000E+00  0.00000000E+00  0.00000000E+00
  0.00000000E+00  0.00000000E+00  0.00000000E+00
  0.00000000E+00  0.00000000E+00  0.00000000E+00
  0.00000000E+00  0.00000000E+00  0.00000000E+00
  0.00000000E+00  0.00000000E+00  0.00000000E+00
  0.00000000E+00  0.00000000E+00  0.00000000E+00
  0.00000000E+00  0.00000000E+00  0.00000000E+00
  0.00000000E+00  0.00000000E+00  0.00000000E+00
  0.00000000E+00  0.00000000E+00  0.00000000E+00
  0.00000000E+00  0.00000000E+00  0.00000000E+00
  0.00000000E+00  0.00000000E+00  0.00000000E+00
  0.00000000E+00  0.00000000E+00  0.00000000E+00
  0.00000000E+00  0.00000000E+00  0.00000000E+00
  0.00000000E+00  0.00000000E+00  0.00000000E+00
  0.00000000E+00  0.00000000E+00  0.00000000E+00
  0.00000000E+00  0.00000000E+00  0.00000000E+00
  0.00000000E+00  0.00000000E+00  0.00000000E+00
  0.00000000E+00  0.00000000E+00  0.00000000E+00
  0.00000000E+00  0.00000000E+00  0.00000000E+00
  0.00000000E+00  0.00000000E+00  0.00000000E+00
  0.00000000E+00  0.00000000E+00  0.00000000E+00
  0.00000000E+00  0.00000000E+00  0.00000000E+00
  0.00000000E+00  0.00000000E+00  0.00000000E+00
  0.00000000E+00  0.00000000E+00  0.00000000E+00
  0.00000000E+00  0.00000000E+00  0.00000000E+00
  0.00000000E+00  0.00000000E+00  0.00000000E+00
  0.00000000E+00  0.00000000E+00  0.00000000E+00
  0.00000000E+00  0.00000000E+00  0.00000000E+00
  0.00000000E+00  0.00000000E+00  0.00000000E+00
  0.00000000E+00  0.00000000E+00  0.00000000E+00
  0.00000000E+00  0.00000000E+00  0.00000000E+00
  0.00000000E+00  0.00000000E+00  0.00000000E+00
  0.00000000E+00  0.00000000E+00  0.00000000E+00
  0.00000000E+00  0.00000000E+00  0.00000000E+00
  0.00000000E+00  0.00000000E+00  0.00000000E+00
  0.00000000E+00  0.00000000E+00  0.00000000E+00
  0.00000000E+00  0.00000000E+00  0.00000000E+00
  0.00000000E+00  0.00000000E+00  0.00000000E+00
  0.00000000E+00  0.00000000E+00  0.00000000E+00
  0.00000000E+00  0.00000000E+00  0.00000000E+00
  0.00000000E+00  0.00000000E+00  0.00000000E+00
  0.00000000E+00  0.00000000E+00  0.00000000E+00
  0.00000000E+00  0.00000000E+00  0.00000000E+00
  0.00000000E+00  0.00000000E+00  0.00000000E+00
  0.00000000E+00  0.00000000E+00  0.00000000E+00
  0.00000000E+00  0.00000000E+00  0.00000000E+00
  0.00000000E+00  0.00000000E+00  0.00000000E+00
  0.00000000E+00  0.00000000E+00  0.00000000E+00
  0.00000000E+00  0.00000000E+00  0.00000000E+00
  0.00000000E+00  0.00000000E+00  0.00000000E+00
  0.00000000E+00  0.00000000E+00  0.00000000E+00
  0.00000000E+00  0.00000000E+00  0.00000000E+00
  0.00000000E+00  0.00000000E+00  0.00000000E+00
  0.00000000E+00  0.00000000E+00  0.00000000E+00
  0.00000000E+00  0.00000000E+00  0.00000000E+00
  0.00000000E+00  0.00000000E+00  0.00000000E+00
  0.00000000E+00  0.00000000E+00  0.00000000E+00
  0.00000000E+00  0.00000000E+00  0.00000000E+00
  0.00000000E+00  0.00000000E+00  0.00000000E+00
  0.00000000E+00  0.00000000E+00  0.00000000E+00
  0.00000000E+00  0.00000000E+00  0.00000000E+00
  0.00000000E+00  0.00000000E+00  0.00000000E+00
  0.00000000E+00  0.00000000E+00  0.00000000E+00
  0.00000000E+00  0.00000000E+00  0.00000000E+00
  0.00000000E+00  0.00000000E+00  0.00000000E+00
  0.00000000E+00  0.00000000E+00  0.00000000E+00
  0.00000000E+00  0.00000000E+00  0.00000000E+00
  0.00000000E+00  0.00000000E+00  0.00000000E+00
  0.00000000E+00  0.00000000E+00  0.00000000E+00
  0.00000000E+00  0.00000000E+00  0.00000000E+00
  0.00000000E+00  0.00000000E+00  0.00000000E+00
  0.00000000E+00  0.00000000E+00  0.00000000E+00
  0.00000000E+00  0.00000000E+00  0.00000000E+00
  0.00000000E+00  0.00000000E+00  0.00000000E+00
  0.00000000E+00  0.00000000E+00  0.00000000E+00
  0.00000000E+00  0.00000000E+00  0.00000000E+00
  0.00000000E+00  0.00000000E+00  0.00000000E+00
  0.00000000E+00  0.00000000E+00  0.00000000E+00
  0.00000000E+00  0.00000000E+00  0.00000000E+00
  0.00000000E+00  0.00000000E+00  0.00000000E+00
  0.00000000E+00  0.00000000E+00  0.00000000E+00
  0.00000000E+00  0.00000000E+00  0.00000000E+00
  0.00000000E+00  0.00000000E+00  0.00000000E+00
