FCC Cu                                  
   1.00000000000000     
     2.5667977333000001    0.0000000000000000    0.0000000000000000
     1.2833988667000000    2.2229120434000000    0.0000000000000000
     0.0000000000000000    0.0000000000000000   29.6704711914000008
   Cu   H 
     8     2
Direct
  0.0000000000000000 -0.0000000000000000  0.0018178342519583
  0.3333333334931865  0.3333333332733517  0.0689903259191659
  0.6666666665967824  0.6666666665467034  0.1369154018229702
  0.0000000000000000  0.0000000000000000  0.2051952933655004
  0.3333333334931865  0.3333333332733517  0.2729478616820613
  0.6666666665967824  0.6666666665467034  0.3412514614330844
  0.0000000000000000 -0.0000000000000000  0.4092010641130095
  0.3333333334931865  0.3333333332733517  0.4763179702907169
  0.3333333335831625  0.3333333330934067  0.5453815375129055
  0.3333333335831625  0.3333333330934067  0.5710503794730026
 
  0.00000000E+00  0.00000000E+00  0.00000000E+00
  0.00000000E+00  0.00000000E+00  0.00000000E+00
  0.00000000E+00  0.00000000E+00  0.00000000E+00
  0.00000000E+00  0.00000000E+00  0.00000000E+00
  0.00000000E+00  0.00000000E+00  0.00000000E+00
  0.00000000E+00  0.00000000E+00  0.00000000E+00
  0.00000000E+00  0.00000000E+00  0.00000000E+00
  0.00000000E+00  0.00000000E+00  0.00000000E+00
  0.00000000E+00  0.00000000E+00  0.00000000E+00
  0.00000000E+00  0.00000000E+00  0.00000000E+00
