FCC Cu                                  
   1.00000000000000     
    10.8900003433000006    0.0000000000000000    0.0000000000000000
     0.0000000000000000   10.8900003433000006    0.0000000000000000
     0.0000000000000000    0.0000000000000000   27.7049999237000009
   Cu   H 
   144     2
Selective dynamics
Direct
  0.0000000000000000  0.0000000000000000  0.0000000000000000   F   F   F
  0.0000000000000000  0.3333333332935382  0.0000000000000000   F   F   F
  0.0000000000000000  0.6666666666789069  0.0000000000000000   F   F   F
  0.3333333332935382  0.0000000000000000  0.0000000000000000   F   F   F
  0.3333333332935382  0.3333333332935382  0.0000000000000000   F   F   F
  0.3333333332935382  0.6666666666789069  0.0000000000000000   F   F   F
  0.6666666666789069  0.0000000000000000  0.0000000000000000   F   F   F
  0.6666666666789069  0.3333333332935382  0.0000000000000000   F   F   F
  0.6666666666789069  0.6666666666789069  0.0000000000000000   F   F   F
  0.1666666666467691  0.1666666666467691  0.0000000000000000   F   F   F
  0.1666666666467691  0.4999999999403144  0.0000000000000000   F   F   F
  0.1666666666467691  0.8333333333256832  0.0000000000000000   F   F   F
  0.4999999999403144  0.1666666666467691  0.0000000000000000   F   F   F
  0.4999999999403144  0.4999999999403144  0.0000000000000000   F   F   F
  0.4999999999403144  0.8333333333256832  0.0000000000000000   F   F   F
  0.8333333333256832  0.1666666666467691  0.0000000000000000   F   F   F
  0.8333333333256832  0.4999999999403144  0.0000000000000000   F   F   F
  0.8333333333256832  0.8333333333256832  0.0000000000000000   F   F   F
  0.0000000000000000  0.1666666666467691  0.0655116416169861   F   F   F
  0.0000000000000000  0.4999999999403144  0.0655116416169861   F   F   F
  0.0000000000000000  0.8333333333256832  0.0655116416169861   F   F   F
  0.3333333332935382  0.1666666666467691  0.0655116416169861   F   F   F
  0.3333333332935382  0.4999999999403144  0.0655116416169861   F   F   F
  0.3333333332935382  0.8333333333256832  0.0655116416169861   F   F   F
  0.6666666666789069  0.1666666666467691  0.0655116416169861   F   F   F
  0.6666666666789069  0.4999999999403144  0.0655116416169861   F   F   F
  0.6666666666789069  0.8333333333256832  0.0655116416169861   F   F   F
  0.1666666666467691  0.0000000000000000  0.0655116416169861   F   F   F
  0.1666666666467691  0.3333333332935382  0.0655116416169861   F   F   F
  0.1666666666467691  0.6666666666789069  0.0655116416169861   F   F   F
  0.4999999999403144  0.0000000000000000  0.0655116416169861   F   F   F
  0.4999999999403144  0.3333333332935382  0.0655116416169861   F   F   F
  0.4999999999403144  0.6666666666789069  0.0655116416169861   F   F   F
  0.8333333333256832  0.0000000000000000  0.0655116416169861   F   F   F
  0.8333333333256832  0.3333333332935382  0.0655116416169861   F   F   F
  0.8333333333256832  0.6666666666789069  0.0655116416169861   F   F   F
  0.0000000000000000  0.0000000000000000  0.1311955341119244   F   F   F
  0.0000000000000000  0.3333333332935382  0.1311955341119244   F   F   F
  0.0000000000000000  0.6666666666789069  0.1311955341119244   F   F   F
  0.3333333332935382  0.0000000000000000  0.1311955341119244   F   F   F
  0.3333333332935382  0.3333333332935382  0.1311955341119244   F   F   F
  0.3333333332935382  0.6666666666789069  0.1311955341119244   F   F   F
  0.6666666666789069  0.0000000000000000  0.1311955341119244   F   F   F
  0.6666666666789069  0.3333333332935382  0.1311955341119244   F   F   F
  0.6666666666789069  0.6666666666789069  0.1311955341119244   F   F   F
  0.1666666666467691  0.1666666666467691  0.1311955341119244   F   F   F
  0.1666666666467691  0.4999999999403144  0.1311955341119244   F   F   F
  0.1666666666467691  0.8333333333256832  0.1311955341119244   F   F   F
  0.4999999999403144  0.1666666666467691  0.1311955341119244   F   F   F
  0.4999999999403144  0.4999999999403144  0.1311955341119244   F   F   F
  0.4999999999403144  0.8333333333256832  0.1311955341119244   F   F   F
  0.8333333333256832  0.1666666666467691  0.1311955341119244   F   F   F
  0.8333333333256832  0.4999999999403144  0.1311955341119244   F   F   F
  0.8333333333256832  0.8333333333256832  0.1311955341119244   F   F   F
 -0.0000252516354394  0.1665193746025049  0.1940069083255879   T   T   T
 -0.0000275222778696  0.4999544725373640  0.1940192182863161   T   T   T
 -0.0000687994627297  0.8332221197033575  0.1939925166062634   T   T   T
  0.3333333332935382  0.1665150974983520  0.1941316877832699   T   T   T
  0.3333333332935382  0.4999267218394393  0.1940808066504741   T   T   T
  0.3333333332935382  0.8331918479339983  0.1939432306196936   T   T   T
  0.6666919183143464  0.1665193746025049  0.1940069083255879   T   T   T
  0.6666941889567769  0.4999544725373640  0.1940192182863161   T   T   T
  0.6667354661416363  0.8332221197033575  0.1939925166062634   T   T   T
  0.1666561651970749 -0.0002071853157093  0.1939946327297236   T   T   T
  0.1666601786405179  0.3332103422543702  0.1941109370336528   T   T   T
  0.1666555302776537  0.6665766248962109  0.1940123196955751   T   T   T
  0.5000105013900088 -0.0002071853157093  0.1939946327297236   T   T   T
  0.5000064879465658  0.3332103422543702  0.1941109370336528   T   T   T
  0.5000111363094303  0.6665766248962109  0.1940123196955751   T   T   T
  0.8333333333256832 -0.0002466652454444  0.1940018128744362   T   T   T
  0.8333333333256832  0.3332512841217923  0.1939435665315418   T   T   T
  0.8333333333256832  0.6666402109322158  0.1939833745243625   T   T   T
 -0.0001045598029312 -0.0004427570776774  0.2567391003299813   T   T   T
 -0.0001635583955247  0.3331564924892498  0.2566993671653131   T   T   T
 -0.0001272632122252  0.6666418053186154  0.2567501609394058   T   T   T
  0.3333333332935382 -0.0004698870162550  0.2567318842555831   T   T   T
  0.3333333332935382  0.3331615347964053  0.2567542067924194   T   T   T
  0.3333333332935382  0.6666092985380599  0.2567437050207968   T   T   T
  0.6667712264818380 -0.0004427570776774  0.2567391003299813   T   T   T
  0.6668302250744319  0.3331564924892498  0.2566993671653131   T   T   T
  0.6667939298911321  0.6666418053186154  0.2567501609394058   T   T   T
  0.1664480509865064  0.1661598489319744  0.2567307545534445   T   T   T
  0.1665026325084838  0.5000373859181123  0.2567591172157364   T   T   T
  0.1665498068107833  0.8330571261603268  0.2567412774555722   T   T   T
  0.5002186156005776  0.1661598489319744  0.2567307545534445   T   T   T
  0.5001640340785997  0.5000373859181123  0.2567591172157364   T   T   T
  0.5001168597763003  0.8330571261603268  0.2567412774555722   T   T   T
  0.8333333333256832  0.1662849640233038  0.2567136494285593   T   T   T
  0.8333333333256832  0.5000748949880635  0.2567377764863427   T   T   T
  0.8333333333256832  0.8331033884836555  0.2567376890585539   T   T   T
 -0.0002142978061616  0.1661484406663804  0.3194680814581518   T   T   T
 -0.0001639244430778  0.4998975045841195  0.3195335414512072   T   T   T
 -0.0001902077083377  0.8329587141393811  0.3197058247439105   T   T   T
  0.3333333332935382  0.1659932415682174  0.3192992835954196   T   T   T
  0.3333333332935382  0.5000571608140829  0.3193593818411496   T   T   T
  0.3333333332935382  0.8328782443798863  0.3196298627532132   T   T   T
  0.6668809644850688  0.1661484406663804  0.3194680814581518   T   T   T
  0.6668305911219853  0.4998975045841195  0.3195335414512072   T   T   T
  0.6668568743872447  0.8329587141393811  0.3197058247439105   T   T   T
  0.1665171413705538 -0.0005930181835763  0.3195433585608302   T   T   T
  0.1663165238771870  0.3330525424613954  0.3192868047639894   T   T   T
  0.1665886653045652  0.6666138547018973  0.3195755038879003   T   T   T
  0.5001495252165294 -0.0005930181835763  0.3195433585608302   T   T   T
  0.5003501427098966  0.3330525424613954  0.3192868047639894   T   T   T
  0.5000780012825183  0.6666138547018973  0.3195755038879003   T   T   T
  0.8333333333256832 -0.0006851805937231  0.3196339538847159   T   T   T
  0.8333333333256832  0.3330935625045592  0.3194981439732466   T   T   T
  0.8333333333256832  0.6667154659482193  0.3197042350776312   T   T   T
 -0.0001041475189857 -0.0005035544632947  0.3831616785204557   T   T   T
 -0.0003343554291602  0.3329636051353385  0.3827793178409249   T   T   T
 -0.0000350415479696  0.6664213931084795  0.3832539055189628   T   T   T
  0.3333333332935382 -0.0006482845305576  0.3828591609080421   T   T   T
  0.3333333332935382  0.3329308347774245  0.3823889931696902   T   T   T
  0.3333333332935382  0.6664137052491075  0.3830746841742586   T   T   T
  0.6667708141978925 -0.0005035544632947  0.3831616785204557   T   T   T
  0.6670010221080671  0.3329636051353385  0.3827793178409249   T   T   T
  0.6667017082268766  0.6664213931084795  0.3832539055189628   T   T   T
  0.1664558780789359  0.1660835214941957  0.3826792368335379   T   T   T
  0.1665177695381942  0.4998387704073328  0.3827891792198597   T   T   T
  0.1666114855493740  0.8329703115048260  0.3831678793667556   T   T   T
  0.5002107885081474  0.1660835214941957  0.3826792368335379   T   T   T
  0.5001488970488889  0.4998387704073328  0.3827891792198597   T   T   T
  0.5000551810377097  0.8329703115048260  0.3831678793667556   T   T   T
  0.8333333333256832  0.1661325981814167  0.3829729080246297   T   T   T
  0.8333333333256832  0.4998140605562312  0.3830255282841609   T   T   T
  0.8333333333256832  0.8329222163072193  0.3833997761397293   T   T   T
  0.0001179155634612  0.1664438621630731  0.4455785097944107   T   T   T
  0.0002190448239757  0.4992230111944907  0.4456106938365594   T   T   T
  0.0001689589122152  0.8330164133561960  0.4460232278625815   T   T   T
  0.3333333332935382  0.1662381250966635  0.4449756461889830   T   T   T
  0.3333333332935382  0.4996424366196316  0.4450414470678379   T   T   T
  0.3333333332935382  0.8330015417781159  0.4458349387395084   T   T   T
  0.6665487511154456  0.1664438621630731  0.4455785097944107   T   T   T
  0.6664476218549317  0.4992230111944907  0.4456106938365594   T   T   T
  0.6664977077666920  0.8330164133561960  0.4460232278625815   T   T   T
  0.1669237088098228  0.0000964030581527  0.4456574278054433   T   T   T
  0.1661430377221880  0.3325101273604107  0.4448401986734964   T   T   T
  0.1669162432736047  0.6659573013692083  0.4457404648116289   T   T   T
  0.4997429577772609  0.0000964030581527  0.4456574278054433   T   T   T
  0.5005236288648953  0.3325101273604107  0.4448401986734964   T   T   T
  0.4997504233134788  0.6659573013692083  0.4457404648116289   T   T   T
  0.8333333333256832 -0.0003179031321470  0.4459296858527635   T   T   T
  0.8333333333256832  0.3329639415446190  0.4456203189389968   T   T   T
  0.8333333333256832  0.6661488450522397  0.4459714722014891   T   T   T
  0.3333333332935382  0.3690937428564539  0.5224063296581675   T   T   T
  0.3333333332935382  0.4048933758028979  0.5455695692305045   T   T   T
 
  0.00000000E+00  0.00000000E+00  0.00000000E+00
  0.00000000E+00  0.00000000E+00  0.00000000E+00
  0.00000000E+00  0.00000000E+00  0.00000000E+00
  0.00000000E+00  0.00000000E+00  0.00000000E+00
  0.00000000E+00  0.00000000E+00  0.00000000E+00
  0.00000000E+00  0.00000000E+00  0.00000000E+00
  0.00000000E+00  0.00000000E+00  0.00000000E+00
  0.00000000E+00  0.00000000E+00  0.00000000E+00
  0.00000000E+00  0.00000000E+00  0.00000000E+00
  0.00000000E+00  0.00000000E+00  0.00000000E+00
  0.00000000E+00  0.00000000E+00  0.00000000E+00
  0.00000000E+00  0.00000000E+00  0.00000000E+00
  0.00000000E+00  0.00000000E+00  0.00000000E+00
  0.00000000E+00  0.00000000E+00  0.00000000E+00
  0.00000000E+00  0.00000000E+00  0.00000000E+00
  0.00000000E+00  0.00000000E+00  0.00000000E+00
  0.00000000E+00  0.00000000E+00  0.00000000E+00
  0.00000000E+00  0.00000000E+00  0.00000000E+00
  0.00000000E+00  0.00000000E+00  0.00000000E+00
  0.00000000E+00  0.00000000E+00  0.00000000E+00
  0.00000000E+00  0.00000000E+00  0.00000000E+00
  0.00000000E+00  0.00000000E+00  0.00000000E+00
  0.00000000E+00  0.00000000E+00  0.00000000E+00
  0.00000000E+00  0.00000000E+00  0.00000000E+00
  0.00000000E+00  0.00000000E+00  0.00000000E+00
  0.00000000E+00  0.00000000E+00  0.00000000E+00
  0.00000000E+00  0.00000000E+00  0.00000000E+00
  0.00000000E+00  0.00000000E+00  0.00000000E+00
  0.00000000E+00  0.00000000E+00  0.00000000E+00
  0.00000000E+00  0.00000000E+00  0.00000000E+00
  0.00000000E+00  0.00000000E+00  0.00000000E+00
  0.00000000E+00  0.00000000E+00  0.00000000E+00
  0.00000000E+00  0.00000000E+00  0.00000000E+00
  0.00000000E+00  0.00000000E+00  0.00000000E+00
  0.00000000E+00  0.00000000E+00  0.00000000E+00
  0.00000000E+00  0.00000000E+00  0.00000000E+00
  0.00000000E+00  0.00000000E+00  0.00000000E+00
  0.00000000E+00  0.00000000E+00  0.00000000E+00
  0.00000000E+00  0.00000000E+00  0.00000000E+00
  0.00000000E+00  0.00000000E+00  0.00000000E+00
  0.00000000E+00  0.00000000E+00  0.00000000E+00
  0.00000000E+00  0.00000000E+00  0.00000000E+00
  0.00000000E+00  0.00000000E+00  0.00000000E+00
  0.00000000E+00  0.00000000E+00  0.00000000E+00
  0.00000000E+00  0.00000000E+00  0.00000000E+00
  0.00000000E+00  0.00000000E+00  0.00000000E+00
  0.00000000E+00  0.00000000E+00  0.00000000E+00
  0.00000000E+00  0.00000000E+00  0.00000000E+00
  0.00000000E+00  0.00000000E+00  0.00000000E+00
  0.00000000E+00  0.00000000E+00  0.00000000E+00
  0.00000000E+00  0.00000000E+00  0.00000000E+00
  0.00000000E+00  0.00000000E+00  0.00000000E+00
  0.00000000E+00  0.00000000E+00  0.00000000E+00
  0.00000000E+00  0.00000000E+00  0.00000000E+00
  0.00000000E+00  0.00000000E+00  0.00000000E+00
  0.00000000E+00  0.00000000E+00  0.00000000E+00
  0.00000000E+00  0.00000000E+00  0.00000000E+00
  0.00000000E+00  0.00000000E+00  0.00000000E+00
  0.00000000E+00  0.00000000E+00  0.00000000E+00
  0.00000000E+00  0.00000000E+00  0.00000000E+00
  0.00000000E+00  0.00000000E+00  0.00000000E+00
  0.00000000E+00  0.00000000E+00  0.00000000E+00
  0.00000000E+00  0.00000000E+00  0.00000000E+00
  0.00000000E+00  0.00000000E+00  0.00000000E+00
  0.00000000E+00  0.00000000E+00  0.00000000E+00
  0.00000000E+00  0.00000000E+00  0.00000000E+00
  0.00000000E+00  0.00000000E+00  0.00000000E+00
  0.00000000E+00  0.00000000E+00  0.00000000E+00
  0.00000000E+00  0.00000000E+00  0.00000000E+00
  0.00000000E+00  0.00000000E+00  0.00000000E+00
  0.00000000E+00  0.00000000E+00  0.00000000E+00
  0.00000000E+00  0.00000000E+00  0.00000000E+00
  0.00000000E+00  0.00000000E+00  0.00000000E+00
  0.00000000E+00  0.00000000E+00  0.00000000E+00
  0.00000000E+00  0.00000000E+00  0.00000000E+00
  0.00000000E+00  0.00000000E+00  0.00000000E+00
  0.00000000E+00  0.00000000E+00  0.00000000E+00
  0.00000000E+00  0.00000000E+00  0.00000000E+00
  0.00000000E+00  0.00000000E+00  0.00000000E+00
  0.00000000E+00  0.00000000E+00  0.00000000E+00
  0.00000000E+00  0.00000000E+00  0.00000000E+00
  0.00000000E+00  0.00000000E+00  0.00000000E+00
  0.00000000E+00  0.00000000E+00  0.00000000E+00
  0.00000000E+00  0.00000000E+00  0.00000000E+00
  0.00000000E+00  0.00000000E+00  0.00000000E+00
  0.00000000E+00  0.00000000E+00  0.00000000E+00
  0.00000000E+00  0.00000000E+00  0.00000000E+00
  0.00000000E+00  0.00000000E+00  0.00000000E+00
  0.00000000E+00  0.00000000E+00  0.00000000E+00
  0.00000000E+00  0.00000000E+00  0.00000000E+00
  0.00000000E+00  0.00000000E+00  0.00000000E+00
  0.00000000E+00  0.00000000E+00  0.00000000E+00
  0.00000000E+00  0.00000000E+00  0.00000000E+00
  0.00000000E+00  0.00000000E+00  0.00000000E+00
  0.00000000E+00  0.00000000E+00  0.00000000E+00
  0.00000000E+00  0.00000000E+00  0.00000000E+00
  0.00000000E+00  0.00000000E+00  0.00000000E+00
  0.00000000E+00  0.00000000E+00  0.00000000E+00
  0.00000000E+00  0.00000000E+00  0.00000000E+00
  0.00000000E+00  0.00000000E+00  0.00000000E+00
  0.00000000E+00  0.00000000E+00  0.00000000E+00
  0.00000000E+00  0.00000000E+00  0.00000000E+00
  0.00000000E+00  0.00000000E+00  0.00000000E+00
  0.00000000E+00  0.00000000E+00  0.00000000E+00
  0.00000000E+00  0.00000000E+00  0.00000000E+00
  0.00000000E+00  0.00000000E+00  0.00000000E+00
  0.00000000E+00  0.00000000E+00  0.00000000E+00
  0.00000000E+00  0.00000000E+00  0.00000000E+00
  0.00000000E+00  0.00000000E+00  0.00000000E+00
  0.00000000E+00  0.00000000E+00  0.00000000E+00
  0.00000000E+00  0.00000000E+00  0.00000000E+00
  0.00000000E+00  0.00000000E+00  0.00000000E+00
  0.00000000E+00  0.00000000E+00  0.00000000E+00
  0.00000000E+00  0.00000000E+00  0.00000000E+00
  0.00000000E+00  0.00000000E+00  0.00000000E+00
  0.00000000E+00  0.00000000E+00  0.00000000E+00
  0.00000000E+00  0.00000000E+00  0.00000000E+00
  0.00000000E+00  0.00000000E+00  0.00000000E+00
  0.00000000E+00  0.00000000E+00  0.00000000E+00
  0.00000000E+00  0.00000000E+00  0.00000000E+00
  0.00000000E+00  0.00000000E+00  0.00000000E+00
  0.00000000E+00  0.00000000E+00  0.00000000E+00
  0.00000000E+00  0.00000000E+00  0.00000000E+00
  0.00000000E+00  0.00000000E+00  0.00000000E+00
  0.00000000E+00  0.00000000E+00  0.00000000E+00
  0.00000000E+00  0.00000000E+00  0.00000000E+00
  0.00000000E+00  0.00000000E+00  0.00000000E+00
  0.00000000E+00  0.00000000E+00  0.00000000E+00
  0.00000000E+00  0.00000000E+00  0.00000000E+00
  0.00000000E+00  0.00000000E+00  0.00000000E+00
  0.00000000E+00  0.00000000E+00  0.00000000E+00
  0.00000000E+00  0.00000000E+00  0.00000000E+00
  0.00000000E+00  0.00000000E+00  0.00000000E+00
  0.00000000E+00  0.00000000E+00  0.00000000E+00
  0.00000000E+00  0.00000000E+00  0.00000000E+00
  0.00000000E+00  0.00000000E+00  0.00000000E+00
  0.00000000E+00  0.00000000E+00  0.00000000E+00
  0.00000000E+00  0.00000000E+00  0.00000000E+00
  0.00000000E+00  0.00000000E+00  0.00000000E+00
  0.00000000E+00  0.00000000E+00  0.00000000E+00
  0.00000000E+00  0.00000000E+00  0.00000000E+00
  0.00000000E+00  0.00000000E+00  0.00000000E+00
  0.00000000E+00  0.00000000E+00  0.00000000E+00
  0.00000000E+00  0.00000000E+00  0.00000000E+00
  0.00000000E+00  0.00000000E+00  0.00000000E+00
  0.00000000E+00  0.00000000E+00  0.00000000E+00
