FCC Cu                                  
   1.00000000000000     
     3.6300001144000000    0.0000000000000000    0.0000000000000000
     0.0000000000000000    3.6300001144000000    0.0000000000000000
     0.0000000000000000    0.0000000000000000   27.7049999237000009
   Cu   H 
    16     2
Direct
 -0.0040057968088684 -0.0016921957575083 -0.0005652641795429
  0.4959239353879429  0.4983775831445327 -0.0005715141811102
 -0.0040116123908536  0.4984564189561532  0.0623842096999403
  0.4958888731450912 -0.0016835091851593  0.0623776299482295
 -0.0037475055750352 -0.0015597698227480  0.1256962380595981
  0.4961732898868870  0.4985886955106926  0.1256911999783472
 -0.0034982809103138  0.4988224159817911  0.1886030553774180
  0.4961666173509754 -0.0015975889523190  0.1885913434797489
 -0.0034214557789686 -0.0014856070191374  0.2505229927052566
  0.4963229147842070  0.4988725941860044  0.2505038189173192
 -0.0035793389571410  0.4987479049153585  0.3134359071046333
  0.4963580998693209 -0.0012837262482502  0.3134082979193971
 -0.0037895832457517 -0.0014222493367109  0.3767243872557330
  0.4960609349493424  0.4989040681940686  0.3767073239408647
 -0.0033426195153050  0.4990404358074226  0.4394495199508722
  0.4962275056853717 -0.0011725578088390  0.4392761661632842
  0.7812365888004289  0.2889001977740042  0.5260134128185850
  0.7790374327166043  0.3785041457325068  0.5507480536344256
 
  0.00000000E+00  0.00000000E+00  0.00000000E+00
  0.00000000E+00  0.00000000E+00  0.00000000E+00
  0.00000000E+00  0.00000000E+00  0.00000000E+00
  0.00000000E+00  0.00000000E+00  0.00000000E+00
  0.00000000E+00  0.00000000E+00  0.00000000E+00
  0.00000000E+00  0.00000000E+00  0.00000000E+00
  0.00000000E+00  0.00000000E+00  0.00000000E+00
  0.00000000E+00  0.00000000E+00  0.00000000E+00
  0.00000000E+00  0.00000000E+00  0.00000000E+00
  0.00000000E+00  0.00000000E+00  0.00000000E+00
  0.00000000E+00  0.00000000E+00  0.00000000E+00
  0.00000000E+00  0.00000000E+00  0.00000000E+00
  0.00000000E+00  0.00000000E+00  0.00000000E+00
  0.00000000E+00  0.00000000E+00  0.00000000E+00
  0.00000000E+00  0.00000000E+00  0.00000000E+00
  0.00000000E+00  0.00000000E+00  0.00000000E+00
  0.00000000E+00  0.00000000E+00  0.00000000E+00
  0.00000000E+00  0.00000000E+00  0.00000000E+00
