FCC Cu                                  
   1.00000000000000     
     2.5667977333000001    0.0000000000000000    0.0000000000000000
     1.2833988667000000    2.2229120434000000    0.0000000000000000
     0.0000000000000000    0.0000000000000000   29.6704711914000008
   Cu   H 
     8     2
Direct
  0.0000854733049230 -0.0001709466098460 -0.0014657387753302
  0.3340568932605760  0.3318862137385729  0.0657720867375388
  0.6692297415754294  0.6615405165894093  0.1338927800463263
  0.0066228007755840 -0.0132456015511680  0.2023780152522732
  0.3451034210223330  0.3097931582150592  0.2702375739331769
  0.6854494237393030  0.6291011522616626  0.3387860280887345
  0.0254015712494326 -0.0508031424988653  0.4069080834289236
  0.3665816945945938  0.2668366110705369  0.4742085059367495
  0.5659921437740166  0.8680157126857150  0.5447363218631648
  0.5003455919864455 -0.0006911837522110  0.5684726303157874
 
  0.00000000E+00  0.00000000E+00  0.00000000E+00
  0.00000000E+00  0.00000000E+00  0.00000000E+00
  0.00000000E+00  0.00000000E+00  0.00000000E+00
  0.00000000E+00  0.00000000E+00  0.00000000E+00
  0.00000000E+00  0.00000000E+00  0.00000000E+00
  0.00000000E+00  0.00000000E+00  0.00000000E+00
  0.00000000E+00  0.00000000E+00  0.00000000E+00
  0.00000000E+00  0.00000000E+00  0.00000000E+00
  0.00000000E+00  0.00000000E+00  0.00000000E+00
  0.00000000E+00  0.00000000E+00  0.00000000E+00
