FCC Cu                                  
   1.00000000000000     
    10.8900003433000006    0.0000000000000000    0.0000000000000000
     0.0000000000000000   10.8900003433000006    0.0000000000000000
     0.0000000000000000    0.0000000000000000   27.7049999237000009
   Cu   H 
   144     1
Selective dynamics
Direct
  0.0000000000000000  0.0000000000000000  0.0000000000000000   F   F   F
  0.0000000000000000  0.3333333332935382  0.0000000000000000   F   F   F
  0.0000000000000000  0.6666666666789069  0.0000000000000000   F   F   F
  0.3333333332935382  0.0000000000000000  0.0000000000000000   F   F   F
  0.3333333332935382  0.3333333332935382  0.0000000000000000   F   F   F
  0.3333333332935382  0.6666666666789069  0.0000000000000000   F   F   F
  0.6666666666789069  0.0000000000000000  0.0000000000000000   F   F   F
  0.6666666666789069  0.3333333332935382  0.0000000000000000   F   F   F
  0.6666666666789069  0.6666666666789069  0.0000000000000000   F   F   F
  0.1666666666467691  0.1666666666467691  0.0000000000000000   F   F   F
  0.1666666666467691  0.4999999999403144  0.0000000000000000   F   F   F
  0.1666666666467691  0.8333333333256832  0.0000000000000000   F   F   F
  0.4999999999403144  0.1666666666467691  0.0000000000000000   F   F   F
  0.4999999999403144  0.4999999999403144  0.0000000000000000   F   F   F
  0.4999999999403144  0.8333333333256832  0.0000000000000000   F   F   F
  0.8333333333256832  0.1666666666467691  0.0000000000000000   F   F   F
  0.8333333333256832  0.4999999999403144  0.0000000000000000   F   F   F
  0.8333333333256832  0.8333333333256832  0.0000000000000000   F   F   F
  0.0000000000000000  0.1666666666467691  0.0655116416169861   F   F   F
  0.0000000000000000  0.4999999999403144  0.0655116416169861   F   F   F
  0.0000000000000000  0.8333333333256832  0.0655116416169861   F   F   F
  0.3333333332935382  0.1666666666467691  0.0655116416169861   F   F   F
  0.3333333332935382  0.4999999999403144  0.0655116416169861   F   F   F
  0.3333333332935382  0.8333333333256832  0.0655116416169861   F   F   F
  0.6666666666789069  0.1666666666467691  0.0655116416169861   F   F   F
  0.6666666666789069  0.4999999999403144  0.0655116416169861   F   F   F
  0.6666666666789069  0.8333333333256832  0.0655116416169861   F   F   F
  0.1666666666467691  0.0000000000000000  0.0655116416169861   F   F   F
  0.1666666666467691  0.3333333332935382  0.0655116416169861   F   F   F
  0.1666666666467691  0.6666666666789069  0.0655116416169861   F   F   F
  0.4999999999403144  0.0000000000000000  0.0655116416169861   F   F   F
  0.4999999999403144  0.3333333332935382  0.0655116416169861   F   F   F
  0.4999999999403144  0.6666666666789069  0.0655116416169861   F   F   F
  0.8333333333256832  0.0000000000000000  0.0655116416169861   F   F   F
  0.8333333333256832  0.3333333332935382  0.0655116416169861   F   F   F
  0.8333333333256832  0.6666666666789069  0.0655116416169861   F   F   F
  0.0000000000000000  0.0000000000000000  0.1311955341119244   F   F   F
  0.0000000000000000  0.3333333332935382  0.1311955341119244   F   F   F
  0.0000000000000000  0.6666666666789069  0.1311955341119244   F   F   F
  0.3333333332935382  0.0000000000000000  0.1311955341119244   F   F   F
  0.3333333332935382  0.3333333332935382  0.1311955341119244   F   F   F
  0.3333333332935382  0.6666666666789069  0.1311955341119244   F   F   F
  0.6666666666789069  0.0000000000000000  0.1311955341119244   F   F   F
  0.6666666666789069  0.3333333332935382  0.1311955341119244   F   F   F
  0.6666666666789069  0.6666666666789069  0.1311955341119244   F   F   F
  0.1666666666467691  0.1666666666467691  0.1311955341119244   F   F   F
  0.1666666666467691  0.4999999999403144  0.1311955341119244   F   F   F
  0.1666666666467691  0.8333333333256832  0.1311955341119244   F   F   F
  0.4999999999403144  0.1666666666467691  0.1311955341119244   F   F   F
  0.4999999999403144  0.4999999999403144  0.1311955341119244   F   F   F
  0.4999999999403144  0.8333333333256832  0.1311955341119244   F   F   F
  0.8333333333256832  0.1666666666467691  0.1311955341119244   F   F   F
  0.8333333333256832  0.4999999999403144  0.1311955341119244   F   F   F
  0.8333333333256832  0.8333333333256832  0.1311955341119244   F   F   F
  0.0001627605120868  0.1668294271588558  0.1944185955434868   T   T   T
  0.0000677998912030  0.4999645450851832  0.1944060735767572   T   T   T
  0.0000861807230691  0.8332438936508446  0.1944239998128631   T   T   T
  0.3332978784384070  0.1667344665379721  0.1944060735767572   T   T   T
  0.3332632498702767  0.4999299165170529  0.1944028472300809   T   T   T
  0.3332790701448428  0.8331435687416560  0.1944927220521224   T   T   T
  0.6665772270040684  0.1667528473698382  0.1944239998128631   T   T   T
  0.6664769020948798  0.4999457367916191  0.1944927220521224   T   T   T
  0.6666127282188309  0.8332793948656071  0.1943366994418913   T   T   T
  0.1667209297954645  0.0001897645840272  0.1944927220521224   T   T   T
  0.1667367500700307  0.3334034167167997  0.1944028472300809   T   T   T
  0.1667021215019003  0.6665988667877039  0.1944060735767572   T   T   T
  0.4999138192172454  0.0000894396748386  0.1944239998128631   T   T   T
  0.4999322000491114  0.3333687881486694  0.1944060735767572   T   T   T
  0.4998372394282278  0.6665039061668200  0.1944185955434868   T   T   T
  0.8333872717857592  0.0000539384600759  0.1943366994418913   T   T   T
  0.8335230979097104  0.3333875964422336  0.1944927220521224   T   T   T
  0.8334227730005217  0.6665804859558379  0.1944239998128631   T   T   T
  0.0000982639672377  0.0000593163825741  0.2575209193428723   T   T   T
  0.0002519261218678  0.3333954220841658  0.2577603010594604   T   T   T
  0.0000413483129982  0.6666253183659090  0.2576021280326443   T   T   T
  0.3333196645598307 -0.0001459534892479  0.2575636552128446   T   T   T
  0.3332817422056556  0.3333849243814208  0.2576546048210883   T   T   T
  0.3332712445029106  0.6664147405570391  0.2577603010594604   T   T   T
  0.6667010097181693 -0.0000343430392623  0.2575275857378166   T   T   T
  0.6668126201681548  0.3333470020272457  0.2575636552128446   T   T   T
  0.6666073502963332  0.6665684027116692  0.2575209193428723   T   T   T
  0.1667287554373967  0.1669185927686370  0.2577603010594604   T   T   T
  0.1667182577346518  0.4999484088524317  0.2576546048210883   T   T   T
  0.1666803353804767  0.8334792868149310  0.2575636552128446   T   T   T
  0.4999586516273162  0.1667080149597673  0.2576021280326443   T   T   T
  0.4997480738184465  0.4999379111496867  0.2577603010594604   T   T   T
  0.4999017359730767  0.8332740169431094  0.2575209193428723   T   T   T
  0.8333926497082569  0.1667649306140069  0.2575209193428723   T   T   T
  0.8331873798364353  0.4999863312066068  0.2575636552128446   T   T   T
  0.8332989902864208  0.8333676763649455  0.2575275857378166   T   T   T
  0.0000006992547954  0.1666673659015645  0.3209062003829730   T   T   T
 -0.0004555398864148  0.4999190006888983  0.3208222540393081   T   T   T
 -0.0001167383770341  0.8334017653929037  0.3208471027951216   T   T   T
  0.3332523340421221  0.1662111267603544  0.3208222540393081   T   T   T
  0.3333021660543982  0.4999688327011744  0.3212572521752716   T   T   T
  0.3333660165264757  0.8330969618894948  0.3210105333830541   T   T   T
  0.6667350987461275  0.1665499282697349  0.3208471027951216   T   T   T
  0.6664302952427186  0.5000326831732520  0.3210105333830541   T   T   T
  0.6665401191858918  0.8332067858326681  0.3208295667386767   T   T   T
  0.1666339834138316  0.0002363714361885  0.3210105333830541   T   T   T
  0.1666978338859090  0.3333645005326782  0.3212572521752716   T   T   T
  0.1667476658981851  0.6671222065653216  0.3208222540393081   T   T   T
  0.5001167383173483 -0.0000684320672207  0.3208471027951216   T   T   T
  0.5004555398267291  0.3334143325449543  0.3208222540393081   T   T   T
  0.4999993006855191  0.6666659674241115  0.3209062003829730   T   T   T
  0.8334598808186983  0.0001265474930153  0.3208295667386767   T   T   T
  0.8335697047618715  0.3333006500606007  0.3210105333830541   T   T   T
  0.8332649012584626  0.6667834050559408  0.3208471027951216   T   T   T
  0.0000873095847111  0.0000647958538193  0.3848152883551391   T   T   T
  0.0012439625236130  0.3335144410885289  0.3853547381934450   T   T   T
 -0.0000236381183543  0.6666903047972613  0.3848502199514386   T   T   T
  0.3332401605782718 -0.0001181184922459  0.3848823213434729   T   T   T
  0.3341128704381556  0.3325537961489208  0.3842718705579198   T   T   T
  0.3331522254985475  0.6654227041552939  0.3853547381934450   T   T   T
  0.6667643144530184 -0.0000976477741113  0.3847409078194191   T   T   T
  0.6667847851711527  0.3334265060088046  0.3848823213434729   T   T   T
  0.6666018708250877  0.6665793570941959  0.3848152883551391   T   T   T
  0.1668477744417599  0.1679106291703821  0.3853547381934450   T   T   T
  0.1658871295021517  0.5007795370849316  0.3842718705579198   T   T   T
  0.1667598393620355  0.8334514518179289  0.3848823213434729   T   T   T
  0.5000236380586687  0.1666430285284149  0.3848502199514386   T   T   T
  0.4987560374167014  0.4998188921453238  0.3853547381934450   T   T   T
  0.4999126903556033  0.8332685374718639  0.3848152883551391   T   T   T
  0.8333981291795024  0.1667539762314802  0.3848152883551391   T   T   T
  0.8332152148334374  0.4999068272250480  0.3848823213434729   T   T   T
  0.8332356855515717  0.8334309810997946  0.3847409078194191   T   T   T
  0.0003355169192315  0.1670021835660006  0.4474915467000635   T   T   T
 -0.0014963277901790  0.5008699060099441  0.4476505721439005   T   T   T
 -0.0004308848739527  0.8337081154873326  0.4474652399239358   T   T   T
  0.3342032393631680  0.1651703388565901  0.4476505721439005   T   T   T
  0.3325475657723028  0.4992142324190790  0.4494878452545603   T   T   T
  0.3333788977503733  0.8331273917219955  0.4475435837672219   T   T   T
  0.6670414488405564  0.1662357817728164  0.4474652399239358   T   T   T
  0.6664607250752193  0.5000455643971495  0.4475435837672219   T   T   T
  0.6665768890964885  0.8332435557432647  0.4474601745468178   T   T   T
  0.1666211021899341  0.0002059416036879  0.4475435837672219   T   T   T
  0.1674524341680044  0.3341191008147736  0.4494878452545603   T   T   T
  0.1657967605771393  0.6681629944690860  0.4476505721439005   T   T   T
  0.5004308848142671 -0.0003747821616495  0.4474652399239358   T   T   T
  0.5014963277304935  0.3324634272239084  0.4476505721439005   T   T   T
  0.4996644830210829  0.6663311497596753  0.4474915467000635   T   T   T
  0.8334231109081016  0.0000897775824183  0.4474601745468178   T   T   T
  0.8335392749293709  0.3332877688367031  0.4475435837672219   T   T   T
  0.8329585511640337  0.6670975515528597  0.4474652399239358   T   T   T
  0.2499999999701572  0.4166666666169263  0.4866993161614773   T   T   T
 
  0.00000000E+00  0.00000000E+00  0.00000000E+00
  0.00000000E+00  0.00000000E+00  0.00000000E+00
  0.00000000E+00  0.00000000E+00  0.00000000E+00
  0.00000000E+00  0.00000000E+00  0.00000000E+00
  0.00000000E+00  0.00000000E+00  0.00000000E+00
  0.00000000E+00  0.00000000E+00  0.00000000E+00
  0.00000000E+00  0.00000000E+00  0.00000000E+00
  0.00000000E+00  0.00000000E+00  0.00000000E+00
  0.00000000E+00  0.00000000E+00  0.00000000E+00
  0.00000000E+00  0.00000000E+00  0.00000000E+00
  0.00000000E+00  0.00000000E+00  0.00000000E+00
  0.00000000E+00  0.00000000E+00  0.00000000E+00
  0.00000000E+00  0.00000000E+00  0.00000000E+00
  0.00000000E+00  0.00000000E+00  0.00000000E+00
  0.00000000E+00  0.00000000E+00  0.00000000E+00
  0.00000000E+00  0.00000000E+00  0.00000000E+00
  0.00000000E+00  0.00000000E+00  0.00000000E+00
  0.00000000E+00  0.00000000E+00  0.00000000E+00
  0.00000000E+00  0.00000000E+00  0.00000000E+00
  0.00000000E+00  0.00000000E+00  0.00000000E+00
  0.00000000E+00  0.00000000E+00  0.00000000E+00
  0.00000000E+00  0.00000000E+00  0.00000000E+00
  0.00000000E+00  0.00000000E+00  0.00000000E+00
  0.00000000E+00  0.00000000E+00  0.00000000E+00
  0.00000000E+00  0.00000000E+00  0.00000000E+00
  0.00000000E+00  0.00000000E+00  0.00000000E+00
  0.00000000E+00  0.00000000E+00  0.00000000E+00
  0.00000000E+00  0.00000000E+00  0.00000000E+00
  0.00000000E+00  0.00000000E+00  0.00000000E+00
  0.00000000E+00  0.00000000E+00  0.00000000E+00
  0.00000000E+00  0.00000000E+00  0.00000000E+00
  0.00000000E+00  0.00000000E+00  0.00000000E+00
  0.00000000E+00  0.00000000E+00  0.00000000E+00
  0.00000000E+00  0.00000000E+00  0.00000000E+00
  0.00000000E+00  0.00000000E+00  0.00000000E+00
  0.00000000E+00  0.00000000E+00  0.00000000E+00
  0.00000000E+00  0.00000000E+00  0.00000000E+00
  0.00000000E+00  0.00000000E+00  0.00000000E+00
  0.00000000E+00  0.00000000E+00  0.00000000E+00
  0.00000000E+00  0.00000000E+00  0.00000000E+00
  0.00000000E+00  0.00000000E+00  0.00000000E+00
  0.00000000E+00  0.00000000E+00  0.00000000E+00
  0.00000000E+00  0.00000000E+00  0.00000000E+00
  0.00000000E+00  0.00000000E+00  0.00000000E+00
  0.00000000E+00  0.00000000E+00  0.00000000E+00
  0.00000000E+00  0.00000000E+00  0.00000000E+00
  0.00000000E+00  0.00000000E+00  0.00000000E+00
  0.00000000E+00  0.00000000E+00  0.00000000E+00
  0.00000000E+00  0.00000000E+00  0.00000000E+00
  0.00000000E+00  0.00000000E+00  0.00000000E+00
  0.00000000E+00  0.00000000E+00  0.00000000E+00
  0.00000000E+00  0.00000000E+00  0.00000000E+00
  0.00000000E+00  0.00000000E+00  0.00000000E+00
  0.00000000E+00  0.00000000E+00  0.00000000E+00
  0.00000000E+00  0.00000000E+00  0.00000000E+00
  0.00000000E+00  0.00000000E+00  0.00000000E+00
  0.00000000E+00  0.00000000E+00  0.00000000E+00
  0.00000000E+00  0.00000000E+00  0.00000000E+00
  0.00000000E+00  0.00000000E+00  0.00000000E+00
  0.00000000E+00  0.00000000E+00  0.00000000E+00
  0.00000000E+00  0.00000000E+00  0.00000000E+00
  0.00000000E+00  0.00000000E+00  0.00000000E+00
  0.00000000E+00  0.00000000E+00  0.00000000E+00
  0.00000000E+00  0.00000000E+00  0.00000000E+00
  0.00000000E+00  0.00000000E+00  0.00000000E+00
  0.00000000E+00  0.00000000E+00  0.00000000E+00
  0.00000000E+00  0.00000000E+00  0.00000000E+00
  0.00000000E+00  0.00000000E+00  0.00000000E+00
  0.00000000E+00  0.00000000E+00  0.00000000E+00
  0.00000000E+00  0.00000000E+00  0.00000000E+00
  0.00000000E+00  0.00000000E+00  0.00000000E+00
  0.00000000E+00  0.00000000E+00  0.00000000E+00
  0.00000000E+00  0.00000000E+00  0.00000000E+00
  0.00000000E+00  0.00000000E+00  0.00000000E+00
  0.00000000E+00  0.00000000E+00  0.00000000E+00
  0.00000000E+00  0.00000000E+00  0.00000000E+00
  0.00000000E+00  0.00000000E+00  0.00000000E+00
  0.00000000E+00  0.00000000E+00  0.00000000E+00
  0.00000000E+00  0.00000000E+00  0.00000000E+00
  0.00000000E+00  0.00000000E+00  0.00000000E+00
  0.00000000E+00  0.00000000E+00  0.00000000E+00
  0.00000000E+00  0.00000000E+00  0.00000000E+00
  0.00000000E+00  0.00000000E+00  0.00000000E+00
  0.00000000E+00  0.00000000E+00  0.00000000E+00
  0.00000000E+00  0.00000000E+00  0.00000000E+00
  0.00000000E+00  0.00000000E+00  0.00000000E+00
  0.00000000E+00  0.00000000E+00  0.00000000E+00
  0.00000000E+00  0.00000000E+00  0.00000000E+00
  0.00000000E+00  0.00000000E+00  0.00000000E+00
  0.00000000E+00  0.00000000E+00  0.00000000E+00
  0.00000000E+00  0.00000000E+00  0.00000000E+00
  0.00000000E+00  0.00000000E+00  0.00000000E+00
  0.00000000E+00  0.00000000E+00  0.00000000E+00
  0.00000000E+00  0.00000000E+00  0.00000000E+00
  0.00000000E+00  0.00000000E+00  0.00000000E+00
  0.00000000E+00  0.00000000E+00  0.00000000E+00
  0.00000000E+00  0.00000000E+00  0.00000000E+00
  0.00000000E+00  0.00000000E+00  0.00000000E+00
  0.00000000E+00  0.00000000E+00  0.00000000E+00
  0.00000000E+00  0.00000000E+00  0.00000000E+00
  0.00000000E+00  0.00000000E+00  0.00000000E+00
  0.00000000E+00  0.00000000E+00  0.00000000E+00
  0.00000000E+00  0.00000000E+00  0.00000000E+00
  0.00000000E+00  0.00000000E+00  0.00000000E+00
  0.00000000E+00  0.00000000E+00  0.00000000E+00
  0.00000000E+00  0.00000000E+00  0.00000000E+00
  0.00000000E+00  0.00000000E+00  0.00000000E+00
  0.00000000E+00  0.00000000E+00  0.00000000E+00
  0.00000000E+00  0.00000000E+00  0.00000000E+00
  0.00000000E+00  0.00000000E+00  0.00000000E+00
  0.00000000E+00  0.00000000E+00  0.00000000E+00
  0.00000000E+00  0.00000000E+00  0.00000000E+00
  0.00000000E+00  0.00000000E+00  0.00000000E+00
  0.00000000E+00  0.00000000E+00  0.00000000E+00
  0.00000000E+00  0.00000000E+00  0.00000000E+00
  0.00000000E+00  0.00000000E+00  0.00000000E+00
  0.00000000E+00  0.00000000E+00  0.00000000E+00
  0.00000000E+00  0.00000000E+00  0.00000000E+00
  0.00000000E+00  0.00000000E+00  0.00000000E+00
  0.00000000E+00  0.00000000E+00  0.00000000E+00
  0.00000000E+00  0.00000000E+00  0.00000000E+00
  0.00000000E+00  0.00000000E+00  0.00000000E+00
  0.00000000E+00  0.00000000E+00  0.00000000E+00
  0.00000000E+00  0.00000000E+00  0.00000000E+00
  0.00000000E+00  0.00000000E+00  0.00000000E+00
  0.00000000E+00  0.00000000E+00  0.00000000E+00
  0.00000000E+00  0.00000000E+00  0.00000000E+00
  0.00000000E+00  0.00000000E+00  0.00000000E+00
  0.00000000E+00  0.00000000E+00  0.00000000E+00
  0.00000000E+00  0.00000000E+00  0.00000000E+00
  0.00000000E+00  0.00000000E+00  0.00000000E+00
  0.00000000E+00  0.00000000E+00  0.00000000E+00
  0.00000000E+00  0.00000000E+00  0.00000000E+00
  0.00000000E+00  0.00000000E+00  0.00000000E+00
  0.00000000E+00  0.00000000E+00  0.00000000E+00
  0.00000000E+00  0.00000000E+00  0.00000000E+00
  0.00000000E+00  0.00000000E+00  0.00000000E+00
  0.00000000E+00  0.00000000E+00  0.00000000E+00
  0.00000000E+00  0.00000000E+00  0.00000000E+00
  0.00000000E+00  0.00000000E+00  0.00000000E+00
  0.00000000E+00  0.00000000E+00  0.00000000E+00
  0.00000000E+00  0.00000000E+00  0.00000000E+00
  0.00000000E+00  0.00000000E+00  0.00000000E+00
  0.00000000E+00  0.00000000E+00  0.00000000E+00
  0.00000000E+00  0.00000000E+00  0.00000000E+00
