FCC Cu                                  
   1.00000000000000     
     3.6300001144000000    0.0000000000000000    0.0000000000000000
     0.0000000000000000    2.5667977333000001    0.0000000000000000
     0.0000000000000000    0.0000000000000000   23.9837913512999990
   Cu   H 
     8     2
Direct
  0.0000000000000000  0.0000000000000000 -0.0007960708962912
  0.4999999999449045  0.5000000001363532  0.0464060940646980
  0.0000000000000000  0.0000000000000000  0.1006792334897459
  0.4999999999449045  0.5000000001363532  0.1527028720498228
  0.0000000000000000  0.0000000000000000  0.2052925492894737
  0.4999999999449045  0.5000000001363532  0.2574223645570304
  0.0000000000000000  0.0000000000000000  0.3116815462000412
  0.4999999999449045  0.5000000001363532  0.3586200735353938
  0.4999999998347207  0.0000000000779181  0.4463277010854376
  0.4999999998347207  0.0000000000779181  0.4780976254676063
 
  0.00000000E+00  0.00000000E+00  0.00000000E+00
  0.00000000E+00  0.00000000E+00  0.00000000E+00
  0.00000000E+00  0.00000000E+00  0.00000000E+00
  0.00000000E+00  0.00000000E+00  0.00000000E+00
  0.00000000E+00  0.00000000E+00  0.00000000E+00
  0.00000000E+00  0.00000000E+00  0.00000000E+00
  0.00000000E+00  0.00000000E+00  0.00000000E+00
  0.00000000E+00  0.00000000E+00  0.00000000E+00
  0.00000000E+00  0.00000000E+00  0.00000000E+00
  0.00000000E+00  0.00000000E+00  0.00000000E+00
