FCC Cu                                  
   1.00000000000000     
    10.8900003433000006    0.0000000000000000    0.0000000000000000
     0.0000000000000000   10.8900003433000006    0.0000000000000000
     0.0000000000000000    0.0000000000000000   27.7049999237000009
   Cu   H 
   144     2
Selective dynamics
Direct
  0.0000000000000000  0.0000000000000000  0.0000000000000000   F   F   F
  0.0000000000000000  0.3333333332935382  0.0000000000000000   F   F   F
  0.0000000000000000  0.6666666666789069  0.0000000000000000   F   F   F
  0.3333333332935382  0.0000000000000000  0.0000000000000000   F   F   F
  0.3333333332935382  0.3333333332935382  0.0000000000000000   F   F   F
  0.3333333332935382  0.6666666666789069  0.0000000000000000   F   F   F
  0.6666666666789069  0.0000000000000000  0.0000000000000000   F   F   F
  0.6666666666789069  0.3333333332935382  0.0000000000000000   F   F   F
  0.6666666666789069  0.6666666666789069  0.0000000000000000   F   F   F
  0.1666666666467691  0.1666666666467691  0.0000000000000000   F   F   F
  0.1666666666467691  0.4999999999403144  0.0000000000000000   F   F   F
  0.1666666666467691  0.8333333333256832  0.0000000000000000   F   F   F
  0.4999999999403144  0.1666666666467691  0.0000000000000000   F   F   F
  0.4999999999403144  0.4999999999403144  0.0000000000000000   F   F   F
  0.4999999999403144  0.8333333333256832  0.0000000000000000   F   F   F
  0.8333333333256832  0.1666666666467691  0.0000000000000000   F   F   F
  0.8333333333256832  0.4999999999403144  0.0000000000000000   F   F   F
  0.8333333333256832  0.8333333333256832  0.0000000000000000   F   F   F
  0.0000000000000000  0.1666666666467691  0.0655116416169861   F   F   F
  0.0000000000000000  0.4999999999403144  0.0655116416169861   F   F   F
  0.0000000000000000  0.8333333333256832  0.0655116416169861   F   F   F
  0.3333333332935382  0.1666666666467691  0.0655116416169861   F   F   F
  0.3333333332935382  0.4999999999403144  0.0655116416169861   F   F   F
  0.3333333332935382  0.8333333333256832  0.0655116416169861   F   F   F
  0.6666666666789069  0.1666666666467691  0.0655116416169861   F   F   F
  0.6666666666789069  0.4999999999403144  0.0655116416169861   F   F   F
  0.6666666666789069  0.8333333333256832  0.0655116416169861   F   F   F
  0.1666666666467691  0.0000000000000000  0.0655116416169861   F   F   F
  0.1666666666467691  0.3333333332935382  0.0655116416169861   F   F   F
  0.1666666666467691  0.6666666666789069  0.0655116416169861   F   F   F
  0.4999999999403144  0.0000000000000000  0.0655116416169861   F   F   F
  0.4999999999403144  0.3333333332935382  0.0655116416169861   F   F   F
  0.4999999999403144  0.6666666666789069  0.0655116416169861   F   F   F
  0.8333333333256832  0.0000000000000000  0.0655116416169861   F   F   F
  0.8333333333256832  0.3333333332935382  0.0655116416169861   F   F   F
  0.8333333333256832  0.6666666666789069  0.0655116416169861   F   F   F
  0.0000000000000000  0.0000000000000000  0.1311955341119244   F   F   F
  0.0000000000000000  0.3333333332935382  0.1311955341119244   F   F   F
  0.0000000000000000  0.6666666666789069  0.1311955341119244   F   F   F
  0.3333333332935382  0.0000000000000000  0.1311955341119244   F   F   F
  0.3333333332935382  0.3333333332935382  0.1311955341119244   F   F   F
  0.3333333332935382  0.6666666666789069  0.1311955341119244   F   F   F
  0.6666666666789069  0.0000000000000000  0.1311955341119244   F   F   F
  0.6666666666789069  0.3333333332935382  0.1311955341119244   F   F   F
  0.6666666666789069  0.6666666666789069  0.1311955341119244   F   F   F
  0.1666666666467691  0.1666666666467691  0.1311955341119244   F   F   F
  0.1666666666467691  0.4999999999403144  0.1311955341119244   F   F   F
  0.1666666666467691  0.8333333333256832  0.1311955341119244   F   F   F
  0.4999999999403144  0.1666666666467691  0.1311955341119244   F   F   F
  0.4999999999403144  0.4999999999403144  0.1311955341119244   F   F   F
  0.4999999999403144  0.8333333333256832  0.1311955341119244   F   F   F
  0.8333333333256832  0.1666666666467691  0.1311955341119244   F   F   F
  0.8333333333256832  0.4999999999403144  0.1311955341119244   F   F   F
  0.8333333333256832  0.8333333333256832  0.1311955341119244   F   F   F
 -0.0002909905467648  0.1664549805568746  0.1941730684556164   T   T   T
 -0.0001495999582341  0.4998416573604402  0.1942771759661808   T   T   T
 -0.0001440513628303  0.8330779230709678  0.1941173566410357   T   T   T
  0.3331979940205916  0.1665883523922426  0.1942189203338194   T   T   T
  0.3329974871428192  0.4997383166986733  0.1941101874150979   T   T   T
  0.3333004411151804  0.8329876562298205  0.1940813765408691   T   T   T
  0.6663616093035288  0.1667007472651222  0.1941634827496280   T   T   T
  0.6662137289836605  0.5000097499277790  0.1940037853849076   T   T   T
  0.6663354808526436  0.8330044299668391  0.1942035113614207   T   T   T
  0.1665871190635736 -0.0001736892472950  0.1939485455208363   T   T   T
  0.1666375866825834  0.3334005742455442  0.1942206472364071   T   T   T
  0.1666226512433167  0.6663413244702828  0.1942224339576873   T   T   T
  0.4996485742516738 -0.0002063136756900  0.1941188612407272   T   T   T
  0.4996914144008063  0.3333221064071343  0.1942029442267383   T   T   T
  0.4998269211621334  0.6665355712528909  0.1941597760689029   T   T   T
  0.8331318965555848 -0.0001523237277491  0.1942232014750763   T   T   T
  0.8330904703801871  0.3332784107284862  0.1940167180492438   T   T   T
  0.8330131399850659  0.6664146922264886  0.1940905139495969   T   T   T
 -0.0005887719062894 -0.0005902057745667  0.2567428779668104   T   T   T
 -0.0006078627984664  0.3330677592609060  0.2568264671889228   T   T   T
 -0.0004889232245413  0.6665107753622385  0.2567794179223294   T   T   T
  0.3333280740894317 -0.0006314862850185  0.2569765886767693   T   T   T
  0.3331880918399233  0.3332440811954280  0.2570184286425561   T   T   T
  0.3332490904088660  0.6663337867403517  0.2569576442237460   T   T   T
  0.6659974892457400 -0.0003584676752128  0.2568930491947963   T   T   T
  0.6660705651173501  0.3333230733321836  0.2568542845720055   T   T   T
  0.6659807168564217  0.6664693488414672  0.2569747082659463   T   T   T
  0.1665049222887556  0.1661376617429847  0.2568001431686497   T   T   T
  0.1665307785360582  0.4997888810193074  0.2570341264267655   T   T   T
  0.1665876424247448  0.8330838192653081  0.2567823335903416   T   T   T
  0.4997776913783129  0.1664397105419427  0.2568375828902286   T   T   T
  0.4996179825236283  0.4998969982635522  0.2569857002591484   T   T   T
  0.4997993747672130  0.8328570925438491  0.2569499388444583   T   T   T
  0.8325476714045401  0.1662365628020144  0.2567858981241570   T   T   T
  0.8322110909850299  0.4999053424281162  0.2569606585168904   T   T   T
  0.8327118613414231  0.8328306230146519  0.2568549583642046   T   T   T
 -0.0009265386065464  0.1659117789189820  0.3193429402027632   T   T   T
 -0.0005982308209579  0.4998958401693703  0.3195291336582877   T   T   T
 -0.0008048278603152  0.8327797489569413  0.3195444972007973   T   T   T
  0.3333542980332991  0.1665657494554578  0.3197915664324610   T   T   T
  0.3329822047343556  0.4999027648459968  0.3199007841261634   T   T   T
  0.3332647579398866  0.8321402726758201  0.3199331697462636   T   T   T
  0.6656552255723421  0.1662532639748720  0.3197148782325983   T   T   T
  0.6648370474366566  0.4998414309683331  0.3200309477368701   T   T   T
  0.6657052504486510  0.8326770686288322  0.3198909809543556   T   T   T
  0.1663370528889624 -0.0007056949293106  0.3193643560392400   T   T   T
  0.1662237651204044  0.3328445039440413  0.3195401882202884   T   T   T
  0.1663084083620013  0.6664252810431803  0.3196986169442815   T   T   T
  0.4997915335454494 -0.0005708868404723  0.3198569905698436   T   T   T
  0.4992945921252973  0.3332730253719977  0.3199807518041655   T   T   T
  0.4991575724607761  0.6660502199931062  0.3202238601658833   T   T   T
  0.8321651730294712 -0.0007849356554577  0.3195158218439512   T   T   T
  0.8320486505366218  0.3329319396969416  0.3195132259465865   T   T   T
  0.8322276623398643  0.6664503611010102  0.3197572036292650   T   T   T
 -0.0011438137710645 -0.0008204872828935  0.3828696087815627   T   T   T
 -0.0015349701892362  0.3325187728221479  0.3825151938908821   T   T   T
 -0.0010010342816035  0.6665025903117270  0.3829941888166103   T   T   T
  0.3330589587947776 -0.0009495289586676  0.3832654763458937   T   T   T
  0.3322423196267953  0.3341602302477220  0.3838067664443495   T   T   T
  0.3321976568601580  0.6648896909663217  0.3844705241947922   T   T   T
  0.6656960665489303 -0.0006255670788694  0.3834418323619008   T   T   T
  0.6657195291882088  0.3330703149691906  0.3835197075176231   T   T   T
  0.6656490031276713  0.6660441832964105  0.3838049256634477   T   T   T
  0.1658132659722596  0.1650258509572618  0.3825933569363211   T   T   T
  0.1664638546211956  0.4996141674812358  0.3834559129450876   T   T   T
  0.1659327641128948  0.8335384852332568  0.3831316930226045   T   T   T
  0.4992820342894987  0.1664254334094871  0.3834436292344770   T   T   T
  0.4972079865255809  0.4997441823054434  0.3846964943397189   T   T   T
  0.4992746811546541  0.8325751015460351  0.3837618392951375   T   T   T
  0.8319881634012054  0.1659450274583780  0.3829608742360618   T   T   T
  0.8318641744748664  0.4996608212858983  0.3831247762728918   T   T   T
  0.8322313996890119  0.8327147884126990  0.3833150819252991   T   T   T
 -0.0021167434087511  0.1647063809622702  0.4454592268465160   T   T   T
 -0.0009489318390067  0.4990504674681764  0.4451523815476890   T   T   T
 -0.0015325875185371  0.8339064582115667  0.4459832078306480   T   T   T
  0.3320518588859454  0.1661195028996938  0.4456502491172015   T   T   T
  0.3282326117057285  0.4980124662032049  0.4496531634696677   T   T   T
  0.3322933783312461  0.8330185713271505  0.4463841283517443   T   T   T
  0.6662509104492806  0.1662334925455457  0.4461730578525882   T   T   T
  0.6661077164499091  0.4993853066948258  0.4464263717551267   T   T   T
  0.6663476310302465  0.8329338080621423  0.4463314778185861   T   T   T
  0.1657097956276467 -0.0003279993319224  0.4458199620151240   T   T   T
  0.1624209675575349  0.3290371676464537  0.4447349710091789   T   T   T
  0.1633372152045300  0.6681671205744616  0.4456999800495495   T   T   T
  0.4993331918895328 -0.0002753174504254  0.4461800063478034   T   T   T
  0.4995272454027738  0.3321813283097982  0.4462413074903750   T   T   T
  0.4995282547197611  0.6668199481629915  0.4466946948041629   T   T   T
  0.8320374935446724 -0.0005266126017372  0.4458653109623043   T   T   T
  0.8329865012708668  0.3325681916011423  0.4458025908253332   T   T   T
  0.8330510955837195  0.6660821065645093  0.4461470789867271   T   T   T
  0.3073291649620070  0.4421526437624619  0.5142423146022560   T   T   T
  0.2779586643541341  0.5081855823271723  0.5166428726079544   T   T   T
 
  0.00000000E+00  0.00000000E+00  0.00000000E+00
  0.00000000E+00  0.00000000E+00  0.00000000E+00
  0.00000000E+00  0.00000000E+00  0.00000000E+00
  0.00000000E+00  0.00000000E+00  0.00000000E+00
  0.00000000E+00  0.00000000E+00  0.00000000E+00
  0.00000000E+00  0.00000000E+00  0.00000000E+00
  0.00000000E+00  0.00000000E+00  0.00000000E+00
  0.00000000E+00  0.00000000E+00  0.00000000E+00
  0.00000000E+00  0.00000000E+00  0.00000000E+00
  0.00000000E+00  0.00000000E+00  0.00000000E+00
  0.00000000E+00  0.00000000E+00  0.00000000E+00
  0.00000000E+00  0.00000000E+00  0.00000000E+00
  0.00000000E+00  0.00000000E+00  0.00000000E+00
  0.00000000E+00  0.00000000E+00  0.00000000E+00
  0.00000000E+00  0.00000000E+00  0.00000000E+00
  0.00000000E+00  0.00000000E+00  0.00000000E+00
  0.00000000E+00  0.00000000E+00  0.00000000E+00
  0.00000000E+00  0.00000000E+00  0.00000000E+00
  0.00000000E+00  0.00000000E+00  0.00000000E+00
  0.00000000E+00  0.00000000E+00  0.00000000E+00
  0.00000000E+00  0.00000000E+00  0.00000000E+00
  0.00000000E+00  0.00000000E+00  0.00000000E+00
  0.00000000E+00  0.00000000E+00  0.00000000E+00
  0.00000000E+00  0.00000000E+00  0.00000000E+00
  0.00000000E+00  0.00000000E+00  0.00000000E+00
  0.00000000E+00  0.00000000E+00  0.00000000E+00
  0.00000000E+00  0.00000000E+00  0.00000000E+00
  0.00000000E+00  0.00000000E+00  0.00000000E+00
  0.00000000E+00  0.00000000E+00  0.00000000E+00
  0.00000000E+00  0.00000000E+00  0.00000000E+00
  0.00000000E+00  0.00000000E+00  0.00000000E+00
  0.00000000E+00  0.00000000E+00  0.00000000E+00
  0.00000000E+00  0.00000000E+00  0.00000000E+00
  0.00000000E+00  0.00000000E+00  0.00000000E+00
  0.00000000E+00  0.00000000E+00  0.00000000E+00
  0.00000000E+00  0.00000000E+00  0.00000000E+00
  0.00000000E+00  0.00000000E+00  0.00000000E+00
  0.00000000E+00  0.00000000E+00  0.00000000E+00
  0.00000000E+00  0.00000000E+00  0.00000000E+00
  0.00000000E+00  0.00000000E+00  0.00000000E+00
  0.00000000E+00  0.00000000E+00  0.00000000E+00
  0.00000000E+00  0.00000000E+00  0.00000000E+00
  0.00000000E+00  0.00000000E+00  0.00000000E+00
  0.00000000E+00  0.00000000E+00  0.00000000E+00
  0.00000000E+00  0.00000000E+00  0.00000000E+00
  0.00000000E+00  0.00000000E+00  0.00000000E+00
  0.00000000E+00  0.00000000E+00  0.00000000E+00
  0.00000000E+00  0.00000000E+00  0.00000000E+00
  0.00000000E+00  0.00000000E+00  0.00000000E+00
  0.00000000E+00  0.00000000E+00  0.00000000E+00
  0.00000000E+00  0.00000000E+00  0.00000000E+00
  0.00000000E+00  0.00000000E+00  0.00000000E+00
  0.00000000E+00  0.00000000E+00  0.00000000E+00
  0.00000000E+00  0.00000000E+00  0.00000000E+00
  0.00000000E+00  0.00000000E+00  0.00000000E+00
  0.00000000E+00  0.00000000E+00  0.00000000E+00
  0.00000000E+00  0.00000000E+00  0.00000000E+00
  0.00000000E+00  0.00000000E+00  0.00000000E+00
  0.00000000E+00  0.00000000E+00  0.00000000E+00
  0.00000000E+00  0.00000000E+00  0.00000000E+00
  0.00000000E+00  0.00000000E+00  0.00000000E+00
  0.00000000E+00  0.00000000E+00  0.00000000E+00
  0.00000000E+00  0.00000000E+00  0.00000000E+00
  0.00000000E+00  0.00000000E+00  0.00000000E+00
  0.00000000E+00  0.00000000E+00  0.00000000E+00
  0.00000000E+00  0.00000000E+00  0.00000000E+00
  0.00000000E+00  0.00000000E+00  0.00000000E+00
  0.00000000E+00  0.00000000E+00  0.00000000E+00
  0.00000000E+00  0.00000000E+00  0.00000000E+00
  0.00000000E+00  0.00000000E+00  0.00000000E+00
  0.00000000E+00  0.00000000E+00  0.00000000E+00
  0.00000000E+00  0.00000000E+00  0.00000000E+00
  0.00000000E+00  0.00000000E+00  0.00000000E+00
  0.00000000E+00  0.00000000E+00  0.00000000E+00
  0.00000000E+00  0.00000000E+00  0.00000000E+00
  0.00000000E+00  0.00000000E+00  0.00000000E+00
  0.00000000E+00  0.00000000E+00  0.00000000E+00
  0.00000000E+00  0.00000000E+00  0.00000000E+00
  0.00000000E+00  0.00000000E+00  0.00000000E+00
  0.00000000E+00  0.00000000E+00  0.00000000E+00
  0.00000000E+00  0.00000000E+00  0.00000000E+00
  0.00000000E+00  0.00000000E+00  0.00000000E+00
  0.00000000E+00  0.00000000E+00  0.00000000E+00
  0.00000000E+00  0.00000000E+00  0.00000000E+00
  0.00000000E+00  0.00000000E+00  0.00000000E+00
  0.00000000E+00  0.00000000E+00  0.00000000E+00
  0.00000000E+00  0.00000000E+00  0.00000000E+00
  0.00000000E+00  0.00000000E+00  0.00000000E+00
  0.00000000E+00  0.00000000E+00  0.00000000E+00
  0.00000000E+00  0.00000000E+00  0.00000000E+00
  0.00000000E+00  0.00000000E+00  0.00000000E+00
  0.00000000E+00  0.00000000E+00  0.00000000E+00
  0.00000000E+00  0.00000000E+00  0.00000000E+00
  0.00000000E+00  0.00000000E+00  0.00000000E+00
  0.00000000E+00  0.00000000E+00  0.00000000E+00
  0.00000000E+00  0.00000000E+00  0.00000000E+00
  0.00000000E+00  0.00000000E+00  0.00000000E+00
  0.00000000E+00  0.00000000E+00  0.00000000E+00
  0.00000000E+00  0.00000000E+00  0.00000000E+00
  0.00000000E+00  0.00000000E+00  0.00000000E+00
  0.00000000E+00  0.00000000E+00  0.00000000E+00
  0.00000000E+00  0.00000000E+00  0.00000000E+00
  0.00000000E+00  0.00000000E+00  0.00000000E+00
  0.00000000E+00  0.00000000E+00  0.00000000E+00
  0.00000000E+00  0.00000000E+00  0.00000000E+00
  0.00000000E+00  0.00000000E+00  0.00000000E+00
  0.00000000E+00  0.00000000E+00  0.00000000E+00
  0.00000000E+00  0.00000000E+00  0.00000000E+00
  0.00000000E+00  0.00000000E+00  0.00000000E+00
  0.00000000E+00  0.00000000E+00  0.00000000E+00
  0.00000000E+00  0.00000000E+00  0.00000000E+00
  0.00000000E+00  0.00000000E+00  0.00000000E+00
  0.00000000E+00  0.00000000E+00  0.00000000E+00
  0.00000000E+00  0.00000000E+00  0.00000000E+00
  0.00000000E+00  0.00000000E+00  0.00000000E+00
  0.00000000E+00  0.00000000E+00  0.00000000E+00
  0.00000000E+00  0.00000000E+00  0.00000000E+00
  0.00000000E+00  0.00000000E+00  0.00000000E+00
  0.00000000E+00  0.00000000E+00  0.00000000E+00
  0.00000000E+00  0.00000000E+00  0.00000000E+00
  0.00000000E+00  0.00000000E+00  0.00000000E+00
  0.00000000E+00  0.00000000E+00  0.00000000E+00
  0.00000000E+00  0.00000000E+00  0.00000000E+00
  0.00000000E+00  0.00000000E+00  0.00000000E+00
  0.00000000E+00  0.00000000E+00  0.00000000E+00
  0.00000000E+00  0.00000000E+00  0.00000000E+00
  0.00000000E+00  0.00000000E+00  0.00000000E+00
  0.00000000E+00  0.00000000E+00  0.00000000E+00
  0.00000000E+00  0.00000000E+00  0.00000000E+00
  0.00000000E+00  0.00000000E+00  0.00000000E+00
  0.00000000E+00  0.00000000E+00  0.00000000E+00
  0.00000000E+00  0.00000000E+00  0.00000000E+00
  0.00000000E+00  0.00000000E+00  0.00000000E+00
  0.00000000E+00  0.00000000E+00  0.00000000E+00
  0.00000000E+00  0.00000000E+00  0.00000000E+00
  0.00000000E+00  0.00000000E+00  0.00000000E+00
  0.00000000E+00  0.00000000E+00  0.00000000E+00
  0.00000000E+00  0.00000000E+00  0.00000000E+00
  0.00000000E+00  0.00000000E+00  0.00000000E+00
  0.00000000E+00  0.00000000E+00  0.00000000E+00
  0.00000000E+00  0.00000000E+00  0.00000000E+00
  0.00000000E+00  0.00000000E+00  0.00000000E+00
  0.00000000E+00  0.00000000E+00  0.00000000E+00
  0.00000000E+00  0.00000000E+00  0.00000000E+00
  0.00000000E+00  0.00000000E+00  0.00000000E+00
  0.00000000E+00  0.00000000E+00  0.00000000E+00
