FCC Cu                                  
   1.00000000000000     
    10.8900003433000006    0.0000000000000000    0.0000000000000000
     0.0000000000000000   10.8900003433000006    0.0000000000000000
     0.0000000000000000    0.0000000000000000   27.7049999237000009
   Cu   H 
   144     2
Selective dynamics
Direct
  0.0000000000000000  0.0000000000000000  0.0000000000000000   F   F   F
  0.0000000000000000  0.3333333332935382  0.0000000000000000   F   F   F
  0.0000000000000000  0.6666666666789069  0.0000000000000000   F   F   F
  0.3333333332935382  0.0000000000000000  0.0000000000000000   F   F   F
  0.3333333332935382  0.3333333332935382  0.0000000000000000   F   F   F
  0.3333333332935382  0.6666666666789069  0.0000000000000000   F   F   F
  0.6666666666789069  0.0000000000000000  0.0000000000000000   F   F   F
  0.6666666666789069  0.3333333332935382  0.0000000000000000   F   F   F
  0.6666666666789069  0.6666666666789069  0.0000000000000000   F   F   F
  0.1666666666467691  0.1666666666467691  0.0000000000000000   F   F   F
  0.1666666666467691  0.4999999999403144  0.0000000000000000   F   F   F
  0.1666666666467691  0.8333333333256832  0.0000000000000000   F   F   F
  0.4999999999403144  0.1666666666467691  0.0000000000000000   F   F   F
  0.4999999999403144  0.4999999999403144  0.0000000000000000   F   F   F
  0.4999999999403144  0.8333333333256832  0.0000000000000000   F   F   F
  0.8333333333256832  0.1666666666467691  0.0000000000000000   F   F   F
  0.8333333333256832  0.4999999999403144  0.0000000000000000   F   F   F
  0.8333333333256832  0.8333333333256832  0.0000000000000000   F   F   F
  0.0000000000000000  0.1666666666467691  0.0655116416169861   F   F   F
  0.0000000000000000  0.4999999999403144  0.0655116416169861   F   F   F
  0.0000000000000000  0.8333333333256832  0.0655116416169861   F   F   F
  0.3333333332935382  0.1666666666467691  0.0655116416169861   F   F   F
  0.3333333332935382  0.4999999999403144  0.0655116416169861   F   F   F
  0.3333333332935382  0.8333333333256832  0.0655116416169861   F   F   F
  0.6666666666789069  0.1666666666467691  0.0655116416169861   F   F   F
  0.6666666666789069  0.4999999999403144  0.0655116416169861   F   F   F
  0.6666666666789069  0.8333333333256832  0.0655116416169861   F   F   F
  0.1666666666467691  0.0000000000000000  0.0655116416169861   F   F   F
  0.1666666666467691  0.3333333332935382  0.0655116416169861   F   F   F
  0.1666666666467691  0.6666666666789069  0.0655116416169861   F   F   F
  0.4999999999403144  0.0000000000000000  0.0655116416169861   F   F   F
  0.4999999999403144  0.3333333332935382  0.0655116416169861   F   F   F
  0.4999999999403144  0.6666666666789069  0.0655116416169861   F   F   F
  0.8333333333256832  0.0000000000000000  0.0655116416169861   F   F   F
  0.8333333333256832  0.3333333332935382  0.0655116416169861   F   F   F
  0.8333333333256832  0.6666666666789069  0.0655116416169861   F   F   F
  0.0000000000000000  0.0000000000000000  0.1311955341119244   F   F   F
  0.0000000000000000  0.3333333332935382  0.1311955341119244   F   F   F
  0.0000000000000000  0.6666666666789069  0.1311955341119244   F   F   F
  0.3333333332935382  0.0000000000000000  0.1311955341119244   F   F   F
  0.3333333332935382  0.3333333332935382  0.1311955341119244   F   F   F
  0.3333333332935382  0.6666666666789069  0.1311955341119244   F   F   F
  0.6666666666789069  0.0000000000000000  0.1311955341119244   F   F   F
  0.6666666666789069  0.3333333332935382  0.1311955341119244   F   F   F
  0.6666666666789069  0.6666666666789069  0.1311955341119244   F   F   F
  0.1666666666467691  0.1666666666467691  0.1311955341119244   F   F   F
  0.1666666666467691  0.4999999999403144  0.1311955341119244   F   F   F
  0.1666666666467691  0.8333333333256832  0.1311955341119244   F   F   F
  0.4999999999403144  0.1666666666467691  0.1311955341119244   F   F   F
  0.4999999999403144  0.4999999999403144  0.1311955341119244   F   F   F
  0.4999999999403144  0.8333333333256832  0.1311955341119244   F   F   F
  0.8333333333256832  0.1666666666467691  0.1311955341119244   F   F   F
  0.8333333333256832  0.4999999999403144  0.1311955341119244   F   F   F
  0.8333333333256832  0.8333333333256832  0.1311955341119244   F   F   F
  0.0001665317330601  0.1669000625723957  0.1941647523685440   T   T   T
 -0.0000363462733005  0.4999976032481976  0.1942008555269897   T   T   T
  0.0001036216447376  0.8332934221396771  0.1941622940377728   T   T   T
  0.3333333332935382  0.1667333149393375  0.1941884535740965   T   T   T
  0.3333333332935382  0.5000243462929063  0.1942116182255910   T   T   T
  0.3333333332935382  0.8335082136879008  0.1942309358325724   T   T   T
  0.6665001349458471  0.1669000625723957  0.1941647523685440   T   T   T
  0.6667030129522075  0.4999976032481976  0.1942008555269897   T   T   T
  0.6665630450341695  0.8332934221396771  0.1941622940377728   T   T   T
  0.1668947368627826  0.0001444272233127  0.1940978975219129   T   T   T
  0.1666696513001384  0.3333874732376013  0.1942217533498967   T   T   T
  0.1667022475315897  0.6666821545172095  0.1942238576956181   T   T   T
  0.4997719297243008  0.0001444272233127  0.1940978975219129   T   T   T
  0.4999970152869452  0.3333874732376013  0.1942217533498967   T   T   T
  0.4999644190554938  0.6666821545172095  0.1942238576956181   T   T   T
  0.8333333333256832  0.0000328221384180  0.1941555800018425   T   T   T
  0.8333333333256832  0.3335670471649005  0.1941077487860670   T   T   T
  0.8333333333256832  0.6664669502268307  0.1941030677742486   T   T   T
  0.0002604916310851  0.0001954849597154  0.2570687266095777   T   T   T
  0.0000592726975836  0.3335090520196333  0.2570197341346822   T   T   T
  0.0001072000862900  0.6666343986183385  0.2569950856933421   T   T   T
  0.3333333332935382  0.0002857101364604  0.2570017908683081   T   T   T
  0.3333333332935382  0.3336982267390659  0.2572273654805238   T   T   T
  0.3333333332935382  0.6665844325306256  0.2571343959842571   T   T   T
  0.6664061750478222  0.0001954849597154  0.2570687266095777   T   T   T
  0.6666073939813233  0.3335090520196333  0.2570197341346822   T   T   T
  0.6665594665926170  0.6666343986183385  0.2569950856933421   T   T   T
  0.1667842731712875  0.1669665494378347  0.2570166317958871   T   T   T
  0.1668962031663222  0.5001217942955406  0.2571735270672816   T   T   T
  0.1667525425947438  0.8334621771081929  0.2569840151488677   T   T   T
  0.4998823934157959  0.1669665494378347  0.2570166317958871   T   T   T
  0.4997704634207614  0.5001217942955406  0.2571735270672816   T   T   T
  0.4999141239923397  0.8334621771081929  0.2569840151488677   T   T   T
  0.8333333333256832  0.1670590763619434  0.2571016533955828   T   T   T
  0.8333333333256832  0.4999576099037015  0.2569824336861071   T   T   T
  0.8333333333256832  0.8332078890038233  0.2570269765907916   T   T   T
  0.0003796377250109  0.1672718974050872  0.3200280621097140   T   T   T
  0.0004997819602650  0.5002216022321100  0.3201858930381321   T   T   T
  0.0003008728229924  0.8332154624508187  0.3199330449461851   T   T   T
  0.3333333332935382  0.1674333242413514  0.3202804715068485   T   T   T
  0.3333333332935382  0.5004343797416544  0.3203848282477461   T   T   T
  0.3333333332935382  0.8330506327981988  0.3201711943110794   T   T   T
  0.6662870289538960  0.1672718974050872  0.3200280621097140   T   T   T
  0.6661668847186422  0.5002216022321100  0.3201858930381321   T   T   T
  0.6663657938559148  0.8332154624508187  0.3199330449461851   T   T   T
  0.1671892803288935  0.0002819971512768  0.3199490693686669   T   T   T
  0.1669333024619032  0.3338824383283522  0.3202370361252028   T   T   T
  0.1669147336318922  0.6666766774256686  0.3201808876523009   T   T   T
  0.4994773862581900  0.0002819971512768  0.3199490693686669   T   T   T
  0.4997333641251806  0.3338824383283522  0.3202370361252028   T   T   T
  0.4997519329551910  0.6666766774256686  0.3201808876523009   T   T   T
  0.8333333333256832  0.0002111670221397  0.3199289533072623   T   T   T
  0.8333333333256832  0.3339893659416077  0.3200283022177143   T   T   T
  0.8333333333256832  0.6662233227128479  0.3199201268167313   T   T   T
  0.0000555472415421  0.0003090343140781  0.3833415299386793   T   T   T
 -0.0000509033117109  0.3337766581247679  0.3837251152955857   T   T   T
 -0.0002753224437311  0.6668397402024363  0.3836508726887776   T   T   T
  0.3333333332935382  0.0002849293797505  0.3837808610708429   T   T   T
  0.3333333332935382  0.3354734667521575  0.3847834492130084   T   T   T
  0.3333333332935382  0.6655190582195022  0.3846243954234370   T   T   T
  0.6666111194373645  0.0003090343140781  0.3833415299386793   T   T   T
  0.6667175699906179  0.3337766581247679  0.3837251152955857   T   T   T
  0.6669419891226380  0.6668397402024363  0.3836508726887776   T   T   T
  0.1668415745320924  0.1666611275612560  0.3836856774053492   T   T   T
  0.1681328025069571  0.5003487513428951  0.3846335928041814   T   T   T
  0.1667258403796738  0.8338333460080380  0.3835840717635244   T   T   T
  0.4998250920549909  0.1666611275612560  0.3836856774053492   T   T   T
  0.4985338640801261  0.5003487513428951  0.3846335928041814   T   T   T
  0.4999408262074099  0.8338333460080380  0.3835840717635244   T   T   T
  0.8333333333256832  0.1670267306558764  0.3833587996835796   T   T   T
  0.8333333333256832  0.5001588438902510  0.3837406561393691   T   T   T
  0.8333333333256832  0.8335590857722240  0.3833278691904068   T   T   T
 -0.0002984073209930  0.1664621280229509  0.4461773030624387   T   T   T
 -0.0002037722232224  0.5003760142089526  0.4463661106217404   T   T   T
 -0.0005902123612801  0.8340489244486070  0.4460982236179147   T   T   T
  0.3333333332935382  0.1669014843052520  0.4464742911449134   T   T   T
  0.3333333332935382  0.5005658124468325  0.4497713970082277   T   T   T
  0.3333333332935382  0.8338486337656852  0.4463845168833559   T   T   T
  0.6669650739999001  0.1664621280229509  0.4461773030624387   T   T   T
  0.6668704389021292  0.5003760142089526  0.4463661106217404   T   T   T
  0.6672568790401866  0.8340489244486070  0.4460982236179147   T   T   T
  0.1665153188766796  0.0001548805396330  0.4463483657887690   T   T   T
  0.1653892761502441  0.3320215765117640  0.4464704492080118   T   T   T
  0.1648849300106241  0.6689562881785968  0.4462894644151350   T   T   T
  0.5001513477104038  0.0001548805396330  0.4463483657887690   T   T   T
  0.5012773904368394  0.3320215765117640  0.4464704492080118   T   T   T
  0.5017817365764594  0.6689562881785968  0.4462894644151350   T   T   T
  0.8333333333256832  0.0005123418382490  0.4459548229513461   T   T   T
  0.8333333333256832  0.3333245217170313  0.4463598765980112   T   T   T
  0.8333333333256832  0.6669472710292423  0.4463779249861127   T   T   T
  0.3333333332935382  0.4782420776220201  0.5163299690761074   T   T   T
  0.3333333332935382  0.5504836265337291  0.5127492625251555   T   T   T
 
  0.00000000E+00  0.00000000E+00  0.00000000E+00
  0.00000000E+00  0.00000000E+00  0.00000000E+00
  0.00000000E+00  0.00000000E+00  0.00000000E+00
  0.00000000E+00  0.00000000E+00  0.00000000E+00
  0.00000000E+00  0.00000000E+00  0.00000000E+00
  0.00000000E+00  0.00000000E+00  0.00000000E+00
  0.00000000E+00  0.00000000E+00  0.00000000E+00
  0.00000000E+00  0.00000000E+00  0.00000000E+00
  0.00000000E+00  0.00000000E+00  0.00000000E+00
  0.00000000E+00  0.00000000E+00  0.00000000E+00
  0.00000000E+00  0.00000000E+00  0.00000000E+00
  0.00000000E+00  0.00000000E+00  0.00000000E+00
  0.00000000E+00  0.00000000E+00  0.00000000E+00
  0.00000000E+00  0.00000000E+00  0.00000000E+00
  0.00000000E+00  0.00000000E+00  0.00000000E+00
  0.00000000E+00  0.00000000E+00  0.00000000E+00
  0.00000000E+00  0.00000000E+00  0.00000000E+00
  0.00000000E+00  0.00000000E+00  0.00000000E+00
  0.00000000E+00  0.00000000E+00  0.00000000E+00
  0.00000000E+00  0.00000000E+00  0.00000000E+00
  0.00000000E+00  0.00000000E+00  0.00000000E+00
  0.00000000E+00  0.00000000E+00  0.00000000E+00
  0.00000000E+00  0.00000000E+00  0.00000000E+00
  0.00000000E+00  0.00000000E+00  0.00000000E+00
  0.00000000E+00  0.00000000E+00  0.00000000E+00
  0.00000000E+00  0.00000000E+00  0.00000000E+00
  0.00000000E+00  0.00000000E+00  0.00000000E+00
  0.00000000E+00  0.00000000E+00  0.00000000E+00
  0.00000000E+00  0.00000000E+00  0.00000000E+00
  0.00000000E+00  0.00000000E+00  0.00000000E+00
  0.00000000E+00  0.00000000E+00  0.00000000E+00
  0.00000000E+00  0.00000000E+00  0.00000000E+00
  0.00000000E+00  0.00000000E+00  0.00000000E+00
  0.00000000E+00  0.00000000E+00  0.00000000E+00
  0.00000000E+00  0.00000000E+00  0.00000000E+00
  0.00000000E+00  0.00000000E+00  0.00000000E+00
  0.00000000E+00  0.00000000E+00  0.00000000E+00
  0.00000000E+00  0.00000000E+00  0.00000000E+00
  0.00000000E+00  0.00000000E+00  0.00000000E+00
  0.00000000E+00  0.00000000E+00  0.00000000E+00
  0.00000000E+00  0.00000000E+00  0.00000000E+00
  0.00000000E+00  0.00000000E+00  0.00000000E+00
  0.00000000E+00  0.00000000E+00  0.00000000E+00
  0.00000000E+00  0.00000000E+00  0.00000000E+00
  0.00000000E+00  0.00000000E+00  0.00000000E+00
  0.00000000E+00  0.00000000E+00  0.00000000E+00
  0.00000000E+00  0.00000000E+00  0.00000000E+00
  0.00000000E+00  0.00000000E+00  0.00000000E+00
  0.00000000E+00  0.00000000E+00  0.00000000E+00
  0.00000000E+00  0.00000000E+00  0.00000000E+00
  0.00000000E+00  0.00000000E+00  0.00000000E+00
  0.00000000E+00  0.00000000E+00  0.00000000E+00
  0.00000000E+00  0.00000000E+00  0.00000000E+00
  0.00000000E+00  0.00000000E+00  0.00000000E+00
  0.00000000E+00  0.00000000E+00  0.00000000E+00
  0.00000000E+00  0.00000000E+00  0.00000000E+00
  0.00000000E+00  0.00000000E+00  0.00000000E+00
  0.00000000E+00  0.00000000E+00  0.00000000E+00
  0.00000000E+00  0.00000000E+00  0.00000000E+00
  0.00000000E+00  0.00000000E+00  0.00000000E+00
  0.00000000E+00  0.00000000E+00  0.00000000E+00
  0.00000000E+00  0.00000000E+00  0.00000000E+00
  0.00000000E+00  0.00000000E+00  0.00000000E+00
  0.00000000E+00  0.00000000E+00  0.00000000E+00
  0.00000000E+00  0.00000000E+00  0.00000000E+00
  0.00000000E+00  0.00000000E+00  0.00000000E+00
  0.00000000E+00  0.00000000E+00  0.00000000E+00
  0.00000000E+00  0.00000000E+00  0.00000000E+00
  0.00000000E+00  0.00000000E+00  0.00000000E+00
  0.00000000E+00  0.00000000E+00  0.00000000E+00
  0.00000000E+00  0.00000000E+00  0.00000000E+00
  0.00000000E+00  0.00000000E+00  0.00000000E+00
  0.00000000E+00  0.00000000E+00  0.00000000E+00
  0.00000000E+00  0.00000000E+00  0.00000000E+00
  0.00000000E+00  0.00000000E+00  0.00000000E+00
  0.00000000E+00  0.00000000E+00  0.00000000E+00
  0.00000000E+00  0.00000000E+00  0.00000000E+00
  0.00000000E+00  0.00000000E+00  0.00000000E+00
  0.00000000E+00  0.00000000E+00  0.00000000E+00
  0.00000000E+00  0.00000000E+00  0.00000000E+00
  0.00000000E+00  0.00000000E+00  0.00000000E+00
  0.00000000E+00  0.00000000E+00  0.00000000E+00
  0.00000000E+00  0.00000000E+00  0.00000000E+00
  0.00000000E+00  0.00000000E+00  0.00000000E+00
  0.00000000E+00  0.00000000E+00  0.00000000E+00
  0.00000000E+00  0.00000000E+00  0.00000000E+00
  0.00000000E+00  0.00000000E+00  0.00000000E+00
  0.00000000E+00  0.00000000E+00  0.00000000E+00
  0.00000000E+00  0.00000000E+00  0.00000000E+00
  0.00000000E+00  0.00000000E+00  0.00000000E+00
  0.00000000E+00  0.00000000E+00  0.00000000E+00
  0.00000000E+00  0.00000000E+00  0.00000000E+00
  0.00000000E+00  0.00000000E+00  0.00000000E+00
  0.00000000E+00  0.00000000E+00  0.00000000E+00
  0.00000000E+00  0.00000000E+00  0.00000000E+00
  0.00000000E+00  0.00000000E+00  0.00000000E+00
  0.00000000E+00  0.00000000E+00  0.00000000E+00
  0.00000000E+00  0.00000000E+00  0.00000000E+00
  0.00000000E+00  0.00000000E+00  0.00000000E+00
  0.00000000E+00  0.00000000E+00  0.00000000E+00
  0.00000000E+00  0.00000000E+00  0.00000000E+00
  0.00000000E+00  0.00000000E+00  0.00000000E+00
  0.00000000E+00  0.00000000E+00  0.00000000E+00
  0.00000000E+00  0.00000000E+00  0.00000000E+00
  0.00000000E+00  0.00000000E+00  0.00000000E+00
  0.00000000E+00  0.00000000E+00  0.00000000E+00
  0.00000000E+00  0.00000000E+00  0.00000000E+00
  0.00000000E+00  0.00000000E+00  0.00000000E+00
  0.00000000E+00  0.00000000E+00  0.00000000E+00
  0.00000000E+00  0.00000000E+00  0.00000000E+00
  0.00000000E+00  0.00000000E+00  0.00000000E+00
  0.00000000E+00  0.00000000E+00  0.00000000E+00
  0.00000000E+00  0.00000000E+00  0.00000000E+00
  0.00000000E+00  0.00000000E+00  0.00000000E+00
  0.00000000E+00  0.00000000E+00  0.00000000E+00
  0.00000000E+00  0.00000000E+00  0.00000000E+00
  0.00000000E+00  0.00000000E+00  0.00000000E+00
  0.00000000E+00  0.00000000E+00  0.00000000E+00
  0.00000000E+00  0.00000000E+00  0.00000000E+00
  0.00000000E+00  0.00000000E+00  0.00000000E+00
  0.00000000E+00  0.00000000E+00  0.00000000E+00
  0.00000000E+00  0.00000000E+00  0.00000000E+00
  0.00000000E+00  0.00000000E+00  0.00000000E+00
  0.00000000E+00  0.00000000E+00  0.00000000E+00
  0.00000000E+00  0.00000000E+00  0.00000000E+00
  0.00000000E+00  0.00000000E+00  0.00000000E+00
  0.00000000E+00  0.00000000E+00  0.00000000E+00
  0.00000000E+00  0.00000000E+00  0.00000000E+00
  0.00000000E+00  0.00000000E+00  0.00000000E+00
  0.00000000E+00  0.00000000E+00  0.00000000E+00
  0.00000000E+00  0.00000000E+00  0.00000000E+00
  0.00000000E+00  0.00000000E+00  0.00000000E+00
  0.00000000E+00  0.00000000E+00  0.00000000E+00
  0.00000000E+00  0.00000000E+00  0.00000000E+00
  0.00000000E+00  0.00000000E+00  0.00000000E+00
  0.00000000E+00  0.00000000E+00  0.00000000E+00
  0.00000000E+00  0.00000000E+00  0.00000000E+00
  0.00000000E+00  0.00000000E+00  0.00000000E+00
  0.00000000E+00  0.00000000E+00  0.00000000E+00
  0.00000000E+00  0.00000000E+00  0.00000000E+00
  0.00000000E+00  0.00000000E+00  0.00000000E+00
  0.00000000E+00  0.00000000E+00  0.00000000E+00
  0.00000000E+00  0.00000000E+00  0.00000000E+00
  0.00000000E+00  0.00000000E+00  0.00000000E+00
  0.00000000E+00  0.00000000E+00  0.00000000E+00
  0.00000000E+00  0.00000000E+00  0.00000000E+00
