FCC Cu                                  
   1.00000000000000     
     2.5667977333000001    0.0000000000000000    0.0000000000000000
     1.2833988667000000    2.2229120434000000    0.0000000000000000
     0.0000000000000000    0.0000000000000000   29.6704711914000008
   Cu   H 
     8     2
Direct
 -0.0000000000000000 -0.0000000000000000  0.0004594821985568
  0.3333333334931865  0.3333333332733517  0.0676408407734281
  0.6666666665967824  0.6666666665467034  0.1356079452492358
  0.0000000000000000 -0.0000000000000000  0.2039566026367604
  0.3333333334931865  0.3333333332733517  0.2719007579373708
  0.6666666665967824  0.6666666665467034  0.3403318071802985
  0.0000000000000000 -0.0000000000000000  0.4084567767307831
  0.3333333334931865  0.3333333332733517  0.4757875974877691
  0.6666666669334944  0.6666666663667584  0.5496773612896719
  0.6666666669334944  0.6666666663667584  0.5752499583805009
 
  0.00000000E+00  0.00000000E+00  0.00000000E+00
  0.00000000E+00  0.00000000E+00  0.00000000E+00
  0.00000000E+00  0.00000000E+00  0.00000000E+00
  0.00000000E+00  0.00000000E+00  0.00000000E+00
  0.00000000E+00  0.00000000E+00  0.00000000E+00
  0.00000000E+00  0.00000000E+00  0.00000000E+00
  0.00000000E+00  0.00000000E+00  0.00000000E+00
  0.00000000E+00  0.00000000E+00  0.00000000E+00
  0.00000000E+00  0.00000000E+00  0.00000000E+00
  0.00000000E+00  0.00000000E+00  0.00000000E+00
