FCC Cu                                  
   1.00000000000000     
    10.8900003433000006    0.0000000000000000    0.0000000000000000
     0.0000000000000000   10.8900003433000006    0.0000000000000000
     0.0000000000000000    0.0000000000000000   27.7049999237000009
   Cu   H 
   144     2
Selective dynamics
Direct
  0.0000000000000000  0.0000000000000000  0.0000000000000000   F   F   F
  0.0000000000000000  0.3333333332935382  0.0000000000000000   F   F   F
  0.0000000000000000  0.6666666666789069  0.0000000000000000   F   F   F
  0.3333333332935382  0.0000000000000000  0.0000000000000000   F   F   F
  0.3333333332935382  0.3333333332935382  0.0000000000000000   F   F   F
  0.3333333332935382  0.6666666666789069  0.0000000000000000   F   F   F
  0.6666666666789069  0.0000000000000000  0.0000000000000000   F   F   F
  0.6666666666789069  0.3333333332935382  0.0000000000000000   F   F   F
  0.6666666666789069  0.6666666666789069  0.0000000000000000   F   F   F
  0.1666666666467691  0.1666666666467691  0.0000000000000000   F   F   F
  0.1666666666467691  0.4999999999403144  0.0000000000000000   F   F   F
  0.1666666666467691  0.8333333333256832  0.0000000000000000   F   F   F
  0.4999999999403144  0.1666666666467691  0.0000000000000000   F   F   F
  0.4999999999403144  0.4999999999403144  0.0000000000000000   F   F   F
  0.4999999999403144  0.8333333333256832  0.0000000000000000   F   F   F
  0.8333333333256832  0.1666666666467691  0.0000000000000000   F   F   F
  0.8333333333256832  0.4999999999403144  0.0000000000000000   F   F   F
  0.8333333333256832  0.8333333333256832  0.0000000000000000   F   F   F
  0.0000000000000000  0.1666666666467691  0.0655116416169861   F   F   F
  0.0000000000000000  0.4999999999403144  0.0655116416169861   F   F   F
  0.0000000000000000  0.8333333333256832  0.0655116416169861   F   F   F
  0.3333333332935382  0.1666666666467691  0.0655116416169861   F   F   F
  0.3333333332935382  0.4999999999403144  0.0655116416169861   F   F   F
  0.3333333332935382  0.8333333333256832  0.0655116416169861   F   F   F
  0.6666666666789069  0.1666666666467691  0.0655116416169861   F   F   F
  0.6666666666789069  0.4999999999403144  0.0655116416169861   F   F   F
  0.6666666666789069  0.8333333333256832  0.0655116416169861   F   F   F
  0.1666666666467691  0.0000000000000000  0.0655116416169861   F   F   F
  0.1666666666467691  0.3333333332935382  0.0655116416169861   F   F   F
  0.1666666666467691  0.6666666666789069  0.0655116416169861   F   F   F
  0.4999999999403144  0.0000000000000000  0.0655116416169861   F   F   F
  0.4999999999403144  0.3333333332935382  0.0655116416169861   F   F   F
  0.4999999999403144  0.6666666666789069  0.0655116416169861   F   F   F
  0.8333333333256832  0.0000000000000000  0.0655116416169861   F   F   F
  0.8333333333256832  0.3333333332935382  0.0655116416169861   F   F   F
  0.8333333333256832  0.6666666666789069  0.0655116416169861   F   F   F
  0.0000000000000000  0.0000000000000000  0.1311955341119244   F   F   F
  0.0000000000000000  0.3333333332935382  0.1311955341119244   F   F   F
  0.0000000000000000  0.6666666666789069  0.1311955341119244   F   F   F
  0.3333333332935382  0.0000000000000000  0.1311955341119244   F   F   F
  0.3333333332935382  0.3333333332935382  0.1311955341119244   F   F   F
  0.3333333332935382  0.6666666666789069  0.1311955341119244   F   F   F
  0.6666666666789069  0.0000000000000000  0.1311955341119244   F   F   F
  0.6666666666789069  0.3333333332935382  0.1311955341119244   F   F   F
  0.6666666666789069  0.6666666666789069  0.1311955341119244   F   F   F
  0.1666666666467691  0.1666666666467691  0.1311955341119244   F   F   F
  0.1666666666467691  0.4999999999403144  0.1311955341119244   F   F   F
  0.1666666666467691  0.8333333333256832  0.1311955341119244   F   F   F
  0.4999999999403144  0.1666666666467691  0.1311955341119244   F   F   F
  0.4999999999403144  0.4999999999403144  0.1311955341119244   F   F   F
  0.4999999999403144  0.8333333333256832  0.1311955341119244   F   F   F
  0.8333333333256832  0.1666666666467691  0.1311955341119244   F   F   F
  0.8333333333256832  0.4999999999403144  0.1311955341119244   F   F   F
  0.8333333333256832  0.8333333333256832  0.1311955341119244   F   F   F
 -0.0001770710104314  0.1665596766507152  0.1941647926188934   T   T   T
 -0.0003767255795737  0.4998964515739540  0.1941861100553846   T   T   T
 -0.0003989131324923  0.8333616511864852  0.1941429115166030   T   T   T
  0.3330891388546798  0.1664373122455797  0.1941987947309740   T   T   T
  0.3334588992268431  0.5001444209120349  0.1941961077714487   T   T   T
  0.3331495898861177  0.8332927036651517  0.1941949614537181   T   T   T
  0.6665778757748820  0.1662833893619793  0.1941326741137498   T   T   T
  0.6665300088404379  0.4999455369529598  0.1941888323542612   T   T   T
  0.6666342038042474  0.8334950167846173  0.1942225957981025   T   T   T
  0.1664401712048894 -0.0001148306182417  0.1941445471424218   T   T   T
  0.1662605117492215  0.3329181339627545  0.1941265939760365   T   T   T
  0.1664892965943699  0.6667049441042496  0.1942056301963124   T   T   T
  0.4998567394301702 -0.0002780161451325  0.1941204501606959   T   T   T
  0.4998652280417438  0.3332633664574070  0.1942138528011760   T   T   T
  0.4997805356798433  0.6665295613763983  0.1942424092333482   T   T   T
  0.8327212752322197 -0.0004261632576304  0.1942318358059236   T   T   T
  0.8331373057023217  0.3332439018983893  0.1941500907727989   T   T   T
  0.8329864900579854  0.6665791022747135  0.1941256107873794   T   T   T
  0.0000007668504095 -0.0001498381900513  0.2573708112083141   T   T   T
 -0.0006034614997714  0.3329735102977328  0.2569297877887836   T   T   T
 -0.0005314957822667  0.6665360931100685  0.2570961670626624   T   T   T
  0.3329238765397869 -0.0003529258825991  0.2570704174110033   T   T   T
  0.3331878357895151  0.3330995114232905  0.2571700303637889   T   T   T
  0.3332956389516802  0.6665980459447556  0.2570889909641038   T   T   T
  0.6661357370924963 -0.0004298777317072  0.2570903457920388   T   T   T
  0.6667320729636990  0.3330768249191310  0.2571658922860774   T   T   T
  0.6664163612874743  0.6664749678561670  0.2572451108615481   T   T   T
  0.1661676494002428  0.1661938494009356  0.2569149891823118   T   T   T
  0.1663680769571998  0.4999465880717184  0.2571759338758073   T   T   T
  0.1662476202919481  0.8335651705652993  0.2571287406481158   T   T   T
  0.4996570356609962  0.1663266411726429  0.2571529361784059   T   T   T
  0.4997989846470182  0.5000718673811083  0.2570546864269390   T   T   T
  0.4996319085837755  0.8331897720134108  0.2572361466392772   T   T   T
  0.8330336960544000  0.1668429240830553  0.2573561150513034   T   T   T
  0.8328229208549993  0.4998158845390763  0.2570045835838670   T   T   T
  0.8327654813894598  0.8329738512190303  0.2571826060183337   T   T   T
 -0.0002809264025444  0.1666992842699132  0.3197428611500043   T   T   T
 -0.0003621212391568  0.4998912470086315  0.3196489224025041   T   T   T
 -0.0003711409137055  0.8328637943821696  0.3198323405048126   T   T   T
  0.3330430469052812  0.1664491862836453  0.3196435768937917   T   T   T
  0.3327952882961572  0.4996447891519230  0.3197570876730796   T   T   T
  0.3329511339158476  0.8330801066430904  0.3198841473527071   T   T   T
  0.6660726511832908  0.1664976255983273  0.3198301362385145   T   T   T
  0.6662397566999196  0.4998169035894639  0.3198822540313028   T   T   T
  0.6660953317200519  0.8329576836012369  0.3198520523005414   T   T   T
  0.1663156272714646 -0.0001924470755267  0.3197976930522153   T   T   T
  0.1664100293855467  0.3333379654076541  0.3197352485937953   T   T   T
  0.1660989627983352  0.6663412940807351  0.3196411054317657   T   T   T
  0.4991949870322424 -0.0002580206253141  0.3198807577295708   T   T   T
  0.4995860341715984  0.3328856095333624  0.3196561611983389   T   T   T
  0.4996398487825178  0.6664963558985771  0.3198194681424368   T   T   T
  0.8328949459456759 -0.0002042084184258  0.3198604139114520   T   T   T
  0.8330191852398269  0.3332361283445473  0.3197583866202167   T   T   T
  0.8329802972726211  0.6661218719554033  0.3198663652025531   T   T   T
 -0.0004085465671071  0.0000196788704580  0.3834289845671485   T   T   T
 -0.0009033001937781  0.3334518702861770  0.3835101315300714   T   T   T
 -0.0004769011987889  0.6659920041097112  0.3837056279042366   T   T   T
  0.3328554175211596 -0.0002164981658868  0.3836612124142895   T   T   T
  0.3328979233981109  0.3329263121601553  0.3836565467626123   T   T   T
  0.3326976870577426  0.6669243366834240  0.3834722549503785   T   T   T
  0.6661748336256874 -0.0000111939783773  0.3836287038789352   T   T   T
  0.6665083495906635  0.3328773684460791  0.3834697910638878   T   T   T
  0.6664153289546186  0.6661931565072243  0.3836319290665979   T   T   T
  0.1665036374896296  0.1659285278901938  0.3834571945685000   T   T   T
  0.1661360135660592  0.4996967988688662  0.3837030040009063   T   T   T
  0.1661094432207634  0.8333143199390330  0.3834520422352680   T   T   T
  0.4990454167345498  0.1663604302533236  0.3837238355774482   T   T   T
  0.5001977454722285  0.4995239654759054  0.3834445660640490   T   T   T
  0.4992092489188197  0.8331948033568833  0.3836811307774441   T   T   T
  0.8332798263021305  0.1666071687137684  0.3834796489872514   T   T   T
  0.8327543228731846  0.4997917536435038  0.3835964022630667   T   T   T
  0.8332805512853593  0.8328977786627940  0.3836004820898635   T   T   T
 -0.0005995044738266  0.1662941126417489  0.4462567430882262   T   T   T
 -0.0008567004209429  0.4997887181056549  0.4464132785793485   T   T   T
 -0.0004609681050741  0.8331208963146591  0.4460566068099314   T   T   T
  0.3328641342017425  0.1663291130338725  0.4464988555655627   T   T   T
  0.3340828883137824  0.5005268389008756  0.4454475164473611   T   T   T
  0.3326633593542232  0.8331584044344442  0.4461674432860303   T   T   T
  0.6664531221132424  0.1662087727717210  0.4460138752066928   T   T   T
  0.6663729597409297  0.4995276025189601  0.4461236258080230   T   T   T
  0.6666606426977740  0.8334692702066451  0.4460510126394877   T   T   T
  0.1659599331555433 -0.0001879006178254  0.4461072722468411   T   T   T
  0.1657400983035333  0.3324231892674791  0.4455859378586252   T   T   T
  0.1660852727947053  0.6669333564017653  0.4460933193721656   T   T   T
  0.4995384113258743 -0.0002996275740615  0.4461525392200951   T   T   T
  0.5001355789239433  0.3327193027715420  0.4460677748358463   T   T   T
  0.5002931128506222  0.6670850730296127  0.4460127157980671   T   T   T
  0.8333447892167987 -0.0000225865157283  0.4458916389345369   T   T   T
  0.8328989115576181  0.3328905855633991  0.4462045758931585   T   T   T
  0.8327984747897317  0.6665230858569027  0.4462089971277958   T   T   T
  0.2841468699754094  0.4240349077940686  0.5265530182949206   T   T   T
  0.2772002689269423  0.4891300344505146  0.5368633965707549   T   T   T
 
  0.00000000E+00  0.00000000E+00  0.00000000E+00
  0.00000000E+00  0.00000000E+00  0.00000000E+00
  0.00000000E+00  0.00000000E+00  0.00000000E+00
  0.00000000E+00  0.00000000E+00  0.00000000E+00
  0.00000000E+00  0.00000000E+00  0.00000000E+00
  0.00000000E+00  0.00000000E+00  0.00000000E+00
  0.00000000E+00  0.00000000E+00  0.00000000E+00
  0.00000000E+00  0.00000000E+00  0.00000000E+00
  0.00000000E+00  0.00000000E+00  0.00000000E+00
  0.00000000E+00  0.00000000E+00  0.00000000E+00
  0.00000000E+00  0.00000000E+00  0.00000000E+00
  0.00000000E+00  0.00000000E+00  0.00000000E+00
  0.00000000E+00  0.00000000E+00  0.00000000E+00
  0.00000000E+00  0.00000000E+00  0.00000000E+00
  0.00000000E+00  0.00000000E+00  0.00000000E+00
  0.00000000E+00  0.00000000E+00  0.00000000E+00
  0.00000000E+00  0.00000000E+00  0.00000000E+00
  0.00000000E+00  0.00000000E+00  0.00000000E+00
  0.00000000E+00  0.00000000E+00  0.00000000E+00
  0.00000000E+00  0.00000000E+00  0.00000000E+00
  0.00000000E+00  0.00000000E+00  0.00000000E+00
  0.00000000E+00  0.00000000E+00  0.00000000E+00
  0.00000000E+00  0.00000000E+00  0.00000000E+00
  0.00000000E+00  0.00000000E+00  0.00000000E+00
  0.00000000E+00  0.00000000E+00  0.00000000E+00
  0.00000000E+00  0.00000000E+00  0.00000000E+00
  0.00000000E+00  0.00000000E+00  0.00000000E+00
  0.00000000E+00  0.00000000E+00  0.00000000E+00
  0.00000000E+00  0.00000000E+00  0.00000000E+00
  0.00000000E+00  0.00000000E+00  0.00000000E+00
  0.00000000E+00  0.00000000E+00  0.00000000E+00
  0.00000000E+00  0.00000000E+00  0.00000000E+00
  0.00000000E+00  0.00000000E+00  0.00000000E+00
  0.00000000E+00  0.00000000E+00  0.00000000E+00
  0.00000000E+00  0.00000000E+00  0.00000000E+00
  0.00000000E+00  0.00000000E+00  0.00000000E+00
  0.00000000E+00  0.00000000E+00  0.00000000E+00
  0.00000000E+00  0.00000000E+00  0.00000000E+00
  0.00000000E+00  0.00000000E+00  0.00000000E+00
  0.00000000E+00  0.00000000E+00  0.00000000E+00
  0.00000000E+00  0.00000000E+00  0.00000000E+00
  0.00000000E+00  0.00000000E+00  0.00000000E+00
  0.00000000E+00  0.00000000E+00  0.00000000E+00
  0.00000000E+00  0.00000000E+00  0.00000000E+00
  0.00000000E+00  0.00000000E+00  0.00000000E+00
  0.00000000E+00  0.00000000E+00  0.00000000E+00
  0.00000000E+00  0.00000000E+00  0.00000000E+00
  0.00000000E+00  0.00000000E+00  0.00000000E+00
  0.00000000E+00  0.00000000E+00  0.00000000E+00
  0.00000000E+00  0.00000000E+00  0.00000000E+00
  0.00000000E+00  0.00000000E+00  0.00000000E+00
  0.00000000E+00  0.00000000E+00  0.00000000E+00
  0.00000000E+00  0.00000000E+00  0.00000000E+00
  0.00000000E+00  0.00000000E+00  0.00000000E+00
  0.00000000E+00  0.00000000E+00  0.00000000E+00
  0.00000000E+00  0.00000000E+00  0.00000000E+00
  0.00000000E+00  0.00000000E+00  0.00000000E+00
  0.00000000E+00  0.00000000E+00  0.00000000E+00
  0.00000000E+00  0.00000000E+00  0.00000000E+00
  0.00000000E+00  0.00000000E+00  0.00000000E+00
  0.00000000E+00  0.00000000E+00  0.00000000E+00
  0.00000000E+00  0.00000000E+00  0.00000000E+00
  0.00000000E+00  0.00000000E+00  0.00000000E+00
  0.00000000E+00  0.00000000E+00  0.00000000E+00
  0.00000000E+00  0.00000000E+00  0.00000000E+00
  0.00000000E+00  0.00000000E+00  0.00000000E+00
  0.00000000E+00  0.00000000E+00  0.00000000E+00
  0.00000000E+00  0.00000000E+00  0.00000000E+00
  0.00000000E+00  0.00000000E+00  0.00000000E+00
  0.00000000E+00  0.00000000E+00  0.00000000E+00
  0.00000000E+00  0.00000000E+00  0.00000000E+00
  0.00000000E+00  0.00000000E+00  0.00000000E+00
  0.00000000E+00  0.00000000E+00  0.00000000E+00
  0.00000000E+00  0.00000000E+00  0.00000000E+00
  0.00000000E+00  0.00000000E+00  0.00000000E+00
  0.00000000E+00  0.00000000E+00  0.00000000E+00
  0.00000000E+00  0.00000000E+00  0.00000000E+00
  0.00000000E+00  0.00000000E+00  0.00000000E+00
  0.00000000E+00  0.00000000E+00  0.00000000E+00
  0.00000000E+00  0.00000000E+00  0.00000000E+00
  0.00000000E+00  0.00000000E+00  0.00000000E+00
  0.00000000E+00  0.00000000E+00  0.00000000E+00
  0.00000000E+00  0.00000000E+00  0.00000000E+00
  0.00000000E+00  0.00000000E+00  0.00000000E+00
  0.00000000E+00  0.00000000E+00  0.00000000E+00
  0.00000000E+00  0.00000000E+00  0.00000000E+00
  0.00000000E+00  0.00000000E+00  0.00000000E+00
  0.00000000E+00  0.00000000E+00  0.00000000E+00
  0.00000000E+00  0.00000000E+00  0.00000000E+00
  0.00000000E+00  0.00000000E+00  0.00000000E+00
  0.00000000E+00  0.00000000E+00  0.00000000E+00
  0.00000000E+00  0.00000000E+00  0.00000000E+00
  0.00000000E+00  0.00000000E+00  0.00000000E+00
  0.00000000E+00  0.00000000E+00  0.00000000E+00
  0.00000000E+00  0.00000000E+00  0.00000000E+00
  0.00000000E+00  0.00000000E+00  0.00000000E+00
  0.00000000E+00  0.00000000E+00  0.00000000E+00
  0.00000000E+00  0.00000000E+00  0.00000000E+00
  0.00000000E+00  0.00000000E+00  0.00000000E+00
  0.00000000E+00  0.00000000E+00  0.00000000E+00
  0.00000000E+00  0.00000000E+00  0.00000000E+00
  0.00000000E+00  0.00000000E+00  0.00000000E+00
  0.00000000E+00  0.00000000E+00  0.00000000E+00
  0.00000000E+00  0.00000000E+00  0.00000000E+00
  0.00000000E+00  0.00000000E+00  0.00000000E+00
  0.00000000E+00  0.00000000E+00  0.00000000E+00
  0.00000000E+00  0.00000000E+00  0.00000000E+00
  0.00000000E+00  0.00000000E+00  0.00000000E+00
  0.00000000E+00  0.00000000E+00  0.00000000E+00
  0.00000000E+00  0.00000000E+00  0.00000000E+00
  0.00000000E+00  0.00000000E+00  0.00000000E+00
  0.00000000E+00  0.00000000E+00  0.00000000E+00
  0.00000000E+00  0.00000000E+00  0.00000000E+00
  0.00000000E+00  0.00000000E+00  0.00000000E+00
  0.00000000E+00  0.00000000E+00  0.00000000E+00
  0.00000000E+00  0.00000000E+00  0.00000000E+00
  0.00000000E+00  0.00000000E+00  0.00000000E+00
  0.00000000E+00  0.00000000E+00  0.00000000E+00
  0.00000000E+00  0.00000000E+00  0.00000000E+00
  0.00000000E+00  0.00000000E+00  0.00000000E+00
  0.00000000E+00  0.00000000E+00  0.00000000E+00
  0.00000000E+00  0.00000000E+00  0.00000000E+00
  0.00000000E+00  0.00000000E+00  0.00000000E+00
  0.00000000E+00  0.00000000E+00  0.00000000E+00
  0.00000000E+00  0.00000000E+00  0.00000000E+00
  0.00000000E+00  0.00000000E+00  0.00000000E+00
  0.00000000E+00  0.00000000E+00  0.00000000E+00
  0.00000000E+00  0.00000000E+00  0.00000000E+00
  0.00000000E+00  0.00000000E+00  0.00000000E+00
  0.00000000E+00  0.00000000E+00  0.00000000E+00
  0.00000000E+00  0.00000000E+00  0.00000000E+00
  0.00000000E+00  0.00000000E+00  0.00000000E+00
  0.00000000E+00  0.00000000E+00  0.00000000E+00
  0.00000000E+00  0.00000000E+00  0.00000000E+00
  0.00000000E+00  0.00000000E+00  0.00000000E+00
  0.00000000E+00  0.00000000E+00  0.00000000E+00
  0.00000000E+00  0.00000000E+00  0.00000000E+00
  0.00000000E+00  0.00000000E+00  0.00000000E+00
  0.00000000E+00  0.00000000E+00  0.00000000E+00
  0.00000000E+00  0.00000000E+00  0.00000000E+00
  0.00000000E+00  0.00000000E+00  0.00000000E+00
  0.00000000E+00  0.00000000E+00  0.00000000E+00
  0.00000000E+00  0.00000000E+00  0.00000000E+00
  0.00000000E+00  0.00000000E+00  0.00000000E+00
  0.00000000E+00  0.00000000E+00  0.00000000E+00
  0.00000000E+00  0.00000000E+00  0.00000000E+00
