FCC Cu                                  
   1.00000000000000     
     3.6300001144000000    0.0000000000000000    0.0000000000000000
     0.0000000000000000    2.5667977333000001    0.0000000000000000
     0.0000000000000000    0.0000000000000000   23.9837913512999990
   Cu   H 
     8     2
Direct
  0.0000000000000000  0.0018597015031173 -0.0011397509390412
  0.4999999999449045  0.5024786272200545  0.0462194760194541
  0.0000000000000000  0.0045062342466595  0.1003943590571769
  0.4999999999449045  0.5064372819802091  0.1524343777683788
  0.0000000000000000  0.0076234329667556  0.2051862539716055
  0.4999999999449045  0.5076136151327815  0.2572942173812911
  0.0000000000000000  0.0077757642319219  0.3114513365617139
  0.4999999999449045  0.5079661175185062  0.3586175324040476
  0.9999999998898090  0.5550799976653826  0.4428484047141121
  0.9999999998898090  0.6041688605772413  0.4740175316508558
 
  0.00000000E+00  0.00000000E+00  0.00000000E+00
  0.00000000E+00  0.00000000E+00  0.00000000E+00
  0.00000000E+00  0.00000000E+00  0.00000000E+00
  0.00000000E+00  0.00000000E+00  0.00000000E+00
  0.00000000E+00  0.00000000E+00  0.00000000E+00
  0.00000000E+00  0.00000000E+00  0.00000000E+00
  0.00000000E+00  0.00000000E+00  0.00000000E+00
  0.00000000E+00  0.00000000E+00  0.00000000E+00
  0.00000000E+00  0.00000000E+00  0.00000000E+00
  0.00000000E+00  0.00000000E+00  0.00000000E+00
