FCC Cu                                  
   1.00000000000000     
     3.6300001144000000    0.0000000000000000    0.0000000000000000
     0.0000000000000000    3.6300001144000000    0.0000000000000000
     0.0000000000000000    0.0000000000000000   27.7049999237000009
   Cu   H 
    16     2
Direct
  0.0000000000000000  0.0119886242586579 -0.0014989223109551
  0.4999999999449045  0.5119442001431480 -0.0014928317217701
  0.0000000000000000  0.5114942447045666  0.0615246247215766
  0.4999999999449045  0.0114786349688754  0.0614932900473025
  0.0000000000000000  0.0110581752294545  0.1248261040514202
  0.4999999999449045  0.5110994781079743  0.1248256542019982
  0.0000000000000000  0.5111835918587061  0.1877400653009023
  0.4999999999449045  0.0113595318482686  0.1876929904825815
  0.0000000000000000  0.0108722307961944  0.2495579628437160
  0.4999999999449045  0.5110135589846186  0.2495378448113611
  0.0000000000000000  0.5111183372131705  0.3124446298860052
  0.4999999999449045  0.0112535880564733  0.3123162297086426
  0.0000000000000000  0.0112434250148191  0.3756037802771972
  0.4999999999449045  0.5114411669277521  0.3755728255632544
  0.0000000000000000  0.5107824013278284  0.4384491935447282
  0.4999999999449045  0.0110406429785007  0.4380119403185155
  0.9999999998897948  0.4120239976194625  0.5401944737278104
  0.9999999998897948  0.6131138045868147  0.5331569787164812
 
  0.00000000E+00  0.00000000E+00  0.00000000E+00
  0.00000000E+00  0.00000000E+00  0.00000000E+00
  0.00000000E+00  0.00000000E+00  0.00000000E+00
  0.00000000E+00  0.00000000E+00  0.00000000E+00
  0.00000000E+00  0.00000000E+00  0.00000000E+00
  0.00000000E+00  0.00000000E+00  0.00000000E+00
  0.00000000E+00  0.00000000E+00  0.00000000E+00
  0.00000000E+00  0.00000000E+00  0.00000000E+00
  0.00000000E+00  0.00000000E+00  0.00000000E+00
  0.00000000E+00  0.00000000E+00  0.00000000E+00
  0.00000000E+00  0.00000000E+00  0.00000000E+00
  0.00000000E+00  0.00000000E+00  0.00000000E+00
  0.00000000E+00  0.00000000E+00  0.00000000E+00
  0.00000000E+00  0.00000000E+00  0.00000000E+00
  0.00000000E+00  0.00000000E+00  0.00000000E+00
  0.00000000E+00  0.00000000E+00  0.00000000E+00
  0.00000000E+00  0.00000000E+00  0.00000000E+00
  0.00000000E+00  0.00000000E+00  0.00000000E+00
