FCC Cu                                  
   1.00000000000000     
    10.8900003433000006    0.0000000000000000    0.0000000000000000
     0.0000000000000000   10.8900003433000006    0.0000000000000000
     0.0000000000000000    0.0000000000000000   27.7049999237000009
   Cu   H 
   144     2
Selective dynamics
Direct
  0.0000000000000000  0.0000000000000000  0.0000000000000000   F   F   F
  0.0000000000000000  0.3333333332935382  0.0000000000000000   F   F   F
  0.0000000000000000  0.6666666666789069  0.0000000000000000   F   F   F
  0.3333333332935382  0.0000000000000000  0.0000000000000000   F   F   F
  0.3333333332935382  0.3333333332935382  0.0000000000000000   F   F   F
  0.3333333332935382  0.6666666666789069  0.0000000000000000   F   F   F
  0.6666666666789069  0.0000000000000000  0.0000000000000000   F   F   F
  0.6666666666789069  0.3333333332935382  0.0000000000000000   F   F   F
  0.6666666666789069  0.6666666666789069  0.0000000000000000   F   F   F
  0.1666666666467691  0.1666666666467691  0.0000000000000000   F   F   F
  0.1666666666467691  0.4999999999403144  0.0000000000000000   F   F   F
  0.1666666666467691  0.8333333333256832  0.0000000000000000   F   F   F
  0.4999999999403144  0.1666666666467691  0.0000000000000000   F   F   F
  0.4999999999403144  0.4999999999403144  0.0000000000000000   F   F   F
  0.4999999999403144  0.8333333333256832  0.0000000000000000   F   F   F
  0.8333333333256832  0.1666666666467691  0.0000000000000000   F   F   F
  0.8333333333256832  0.4999999999403144  0.0000000000000000   F   F   F
  0.8333333333256832  0.8333333333256832  0.0000000000000000   F   F   F
  0.0000000000000000  0.1666666666467691  0.0655116416169861   F   F   F
  0.0000000000000000  0.4999999999403144  0.0655116416169861   F   F   F
  0.0000000000000000  0.8333333333256832  0.0655116416169861   F   F   F
  0.3333333332935382  0.1666666666467691  0.0655116416169861   F   F   F
  0.3333333332935382  0.4999999999403144  0.0655116416169861   F   F   F
  0.3333333332935382  0.8333333333256832  0.0655116416169861   F   F   F
  0.6666666666789069  0.1666666666467691  0.0655116416169861   F   F   F
  0.6666666666789069  0.4999999999403144  0.0655116416169861   F   F   F
  0.6666666666789069  0.8333333333256832  0.0655116416169861   F   F   F
  0.1666666666467691  0.0000000000000000  0.0655116416169861   F   F   F
  0.1666666666467691  0.3333333332935382  0.0655116416169861   F   F   F
  0.1666666666467691  0.6666666666789069  0.0655116416169861   F   F   F
  0.4999999999403144  0.0000000000000000  0.0655116416169861   F   F   F
  0.4999999999403144  0.3333333332935382  0.0655116416169861   F   F   F
  0.4999999999403144  0.6666666666789069  0.0655116416169861   F   F   F
  0.8333333333256832  0.0000000000000000  0.0655116416169861   F   F   F
  0.8333333333256832  0.3333333332935382  0.0655116416169861   F   F   F
  0.8333333333256832  0.6666666666789069  0.0655116416169861   F   F   F
  0.0000000000000000  0.0000000000000000  0.1311955341119244   F   F   F
  0.0000000000000000  0.3333333332935382  0.1311955341119244   F   F   F
  0.0000000000000000  0.6666666666789069  0.1311955341119244   F   F   F
  0.3333333332935382  0.0000000000000000  0.1311955341119244   F   F   F
  0.3333333332935382  0.3333333332935382  0.1311955341119244   F   F   F
  0.3333333332935382  0.6666666666789069  0.1311955341119244   F   F   F
  0.6666666666789069  0.0000000000000000  0.1311955341119244   F   F   F
  0.6666666666789069  0.3333333332935382  0.1311955341119244   F   F   F
  0.6666666666789069  0.6666666666789069  0.1311955341119244   F   F   F
  0.1666666666467691  0.1666666666467691  0.1311955341119244   F   F   F
  0.1666666666467691  0.4999999999403144  0.1311955341119244   F   F   F
  0.1666666666467691  0.8333333333256832  0.1311955341119244   F   F   F
  0.4999999999403144  0.1666666666467691  0.1311955341119244   F   F   F
  0.4999999999403144  0.4999999999403144  0.1311955341119244   F   F   F
  0.4999999999403144  0.8333333333256832  0.1311955341119244   F   F   F
  0.8333333333256832  0.1666666666467691  0.1311955341119244   F   F   F
  0.8333333333256832  0.4999999999403144  0.1311955341119244   F   F   F
  0.8333333333256832  0.8333333333256832  0.1311955341119244   F   F   F
 -0.0000482125981985  0.1666364667293927  0.1940465405410263   T   T   T
 -0.0000482125981985  0.5000301998576906  0.1940465405410263   T   T   T
 -0.0000175426538205  0.8333333333256832  0.1940483216708439   T   T   T
  0.3333333332935382  0.1666403542835527  0.1941343120752404   T   T   T
  0.3333333332935382  0.5000263123035303  0.1941343120752404   T   T   T
  0.3333333332935382  0.8333333333256832  0.1939735177325190   T   T   T
  0.6667148792771057  0.1666364667293927  0.1940465405410263   T   T   T
  0.6667148792771057  0.5000301998576906  0.1940465405410263   T   T   T
  0.6666842093327274  0.8333333333256832  0.1940483216708439   T   T   T
  0.1666364667293927 -0.0000482125981985  0.1940465405410263   T   T   T
  0.1666403542835527  0.3333333332935382  0.1941343120752404   T   T   T
  0.1666364667293927  0.6667148792771057  0.1940465405410263   T   T   T
  0.5000301998576906 -0.0000482125981985  0.1940465405410263   T   T   T
  0.5000263123035303  0.3333333332935382  0.1941343120752404   T   T   T
  0.5000301998576906  0.6667148792771057  0.1940465405410263   T   T   T
  0.8333333333256832 -0.0000175426538205  0.1940483216708439   T   T   T
  0.8333333333256832  0.3333333332935382  0.1939735177325190   T   T   T
  0.8333333333256832  0.6666842093327274  0.1940483216708439   T   T   T
 -0.0001496651638782 -0.0001496651638782  0.2568230902214465   T   T   T
 -0.0002371813793108  0.3333333332935382  0.2567892161725763   T   T   T
 -0.0001496651638782  0.6668163318427847  0.2568230902214465   T   T   T
  0.3333333332935382 -0.0002371813793108  0.2567892161725763   T   T   T
  0.3333333332935382  0.3333333332935382  0.2568147268277310   T   T   T
  0.3333333332935382  0.6669038480582176  0.2567892161725763   T   T   T
  0.6668163318427847 -0.0001496651638782  0.2568230902214465   T   T   T
  0.6669038480582176  0.3333333332935382  0.2567892161725763   T   T   T
  0.6668163318427847  0.6668163318427847  0.2568230902214465   T   T   T
  0.1664544504028533  0.1664544504028533  0.2567963007539596   T   T   T
  0.1664544504028533  0.5002122161842303  0.2567963007539596   T   T   T
  0.1665252650364046  0.8333333333256832  0.2568188407969051   T   T   T
  0.5002122161842303  0.1664544504028533  0.2567963007539596   T   T   T
  0.5002122161842303  0.5002122161842303  0.2567963007539596   T   T   T
  0.5001414015506790  0.8333333333256832  0.2568188407969051   T   T   T
  0.8333333333256832  0.1665252650364046  0.2568188407969051   T   T   T
  0.8333333333256832  0.5001414015506790  0.2568188407969051   T   T   T
  0.8333333333256832  0.8333333333256832  0.2568328461058463   T   T   T
 -0.0002248854458688  0.1664672572377358  0.3196603441050682   T   T   T
 -0.0002248854458688  0.5001994093493478  0.3196603441050682   T   T   T
 -0.0002494113084764  0.8333333333256832  0.3198177281967189   T   T   T
  0.3333333332935382  0.1663755732788526  0.3194538882667418   T   T   T
  0.3333333332935382  0.5002910933082311  0.3194538882667418   T   T   T
  0.3333333332935382  0.8333333333256832  0.3196612220310594   T   T   T
  0.6668915521247760  0.1664672572377358  0.3196603441050682   T   T   T
  0.6668915521247760  0.5001994093493478  0.3196603441050682   T   T   T
  0.6669160779873833  0.8333333333256832  0.3198177281967189   T   T   T
  0.1664672572377358 -0.0002248854458688  0.3196603441050682   T   T   T
  0.1663755732788526  0.3333333332935382  0.3194538882667418   T   T   T
  0.1664672572377358  0.6668915521247760  0.3196603441050682   T   T   T
  0.5001994093493478 -0.0002248854458688  0.3196603441050682   T   T   T
  0.5002910933082311  0.3333333332935382  0.3194538882667418   T   T   T
  0.5001994093493478  0.6668915521247760  0.3196603441050682   T   T   T
  0.8333333333256832 -0.0002494113084764  0.3198177281967189   T   T   T
  0.8333333333256832  0.3333333332935382  0.3196612220310594   T   T   T
  0.8333333333256832  0.6669160779873833  0.3198177281967189   T   T   T
 -0.0000608065977719 -0.0000608065977719  0.3834450140539704   T   T   T
 -0.0003292271864610  0.3333333332935382  0.3831170713622180   T   T   T
 -0.0000608065977719  0.6667274732766788  0.3834450140539704   T   T   T
  0.3333333332935382 -0.0003292271864610  0.3831170713622180   T   T   T
  0.3333333332935382  0.3333333332935382  0.3827085822233313   T   T   T
  0.3333333332935382  0.6669958938653681  0.3831170713622180   T   T   T
  0.6667274732766788 -0.0000608065977719  0.3834450140539704   T   T   T
  0.6669958938653681  0.3333333332935382  0.3831170713622180   T   T   T
  0.6667274732766788  0.6667274732766788  0.3834450140539704   T   T   T
  0.1665016615546821  0.1665016615546821  0.3829891757935973   T   T   T
  0.1665016615546821  0.5001650050324020  0.3829891757935973   T   T   T
  0.1665413763570350  0.8333333333256832  0.3833699110307731   T   T   T
  0.5001650050324020  0.1665016615546821  0.3829891757935973   T   T   T
  0.5001650050324020  0.5001650050324020  0.3829891757935973   T   T   T
  0.5001252902300480  0.8333333333256832  0.3833699110307731   T   T   T
  0.8333333333256832  0.1665413763570350  0.3833699110307731   T   T   T
  0.8333333333256832  0.5001252902300480  0.3833699110307731   T   T   T
  0.8333333333256832  0.8333333333256832  0.3836236481289120   T   T   T
  0.0002464850576853  0.1668799063429952  0.4460097243328040   T   T   T
  0.0002464850576853  0.4997867602440884  0.4460097243328040   T   T   T
  0.0001546787241898  0.8333333333256832  0.4462369477887245   T   T   T
  0.3333333332935382  0.1666021511294843  0.4454101203271718   T   T   T
  0.3333333332935382  0.5000645154575992  0.4454101203271718   T   T   T
  0.3333333332935382  0.8333333333256832  0.4460589286502985   T   T   T
  0.6664201816212216  0.1668799063429952  0.4460097243328040   T   T   T
  0.6664201816212216  0.4997867602440884  0.4460097243328040   T   T   T
  0.6665119879547169  0.8333333333256832  0.4462369477887245   T   T   T
  0.1668799063429952  0.0002464850576853  0.4460097243328040   T   T   T
  0.1666021511294843  0.3333333332935382  0.4454101203271718   T   T   T
  0.1668799063429952  0.6664201816212216  0.4460097243328040   T   T   T
  0.4997867602440884  0.0002464850576853  0.4460097243328040   T   T   T
  0.5000645154575992  0.3333333332935382  0.4454101203271718   T   T   T
  0.4997867602440884  0.6664201816212216  0.4460097243328040   T   T   T
  0.8333333333256832  0.0001546787241898  0.4462369477887245   T   T   T
  0.8333333333256832  0.3333333332935382  0.4460589286502985   T   T   T
  0.8333333333256832  0.6665119879547169  0.4462369477887245   T   T   T
  0.3333333332935382  0.3333333332935382  0.5267117564195511   T   T   T
  0.3333333332935382  0.3333333332935382  0.5541130255259348   T   T   T
 
  0.00000000E+00  0.00000000E+00  0.00000000E+00
  0.00000000E+00  0.00000000E+00  0.00000000E+00
  0.00000000E+00  0.00000000E+00  0.00000000E+00
  0.00000000E+00  0.00000000E+00  0.00000000E+00
  0.00000000E+00  0.00000000E+00  0.00000000E+00
  0.00000000E+00  0.00000000E+00  0.00000000E+00
  0.00000000E+00  0.00000000E+00  0.00000000E+00
  0.00000000E+00  0.00000000E+00  0.00000000E+00
  0.00000000E+00  0.00000000E+00  0.00000000E+00
  0.00000000E+00  0.00000000E+00  0.00000000E+00
  0.00000000E+00  0.00000000E+00  0.00000000E+00
  0.00000000E+00  0.00000000E+00  0.00000000E+00
  0.00000000E+00  0.00000000E+00  0.00000000E+00
  0.00000000E+00  0.00000000E+00  0.00000000E+00
  0.00000000E+00  0.00000000E+00  0.00000000E+00
  0.00000000E+00  0.00000000E+00  0.00000000E+00
  0.00000000E+00  0.00000000E+00  0.00000000E+00
  0.00000000E+00  0.00000000E+00  0.00000000E+00
  0.00000000E+00  0.00000000E+00  0.00000000E+00
  0.00000000E+00  0.00000000E+00  0.00000000E+00
  0.00000000E+00  0.00000000E+00  0.00000000E+00
  0.00000000E+00  0.00000000E+00  0.00000000E+00
  0.00000000E+00  0.00000000E+00  0.00000000E+00
  0.00000000E+00  0.00000000E+00  0.00000000E+00
  0.00000000E+00  0.00000000E+00  0.00000000E+00
  0.00000000E+00  0.00000000E+00  0.00000000E+00
  0.00000000E+00  0.00000000E+00  0.00000000E+00
  0.00000000E+00  0.00000000E+00  0.00000000E+00
  0.00000000E+00  0.00000000E+00  0.00000000E+00
  0.00000000E+00  0.00000000E+00  0.00000000E+00
  0.00000000E+00  0.00000000E+00  0.00000000E+00
  0.00000000E+00  0.00000000E+00  0.00000000E+00
  0.00000000E+00  0.00000000E+00  0.00000000E+00
  0.00000000E+00  0.00000000E+00  0.00000000E+00
  0.00000000E+00  0.00000000E+00  0.00000000E+00
  0.00000000E+00  0.00000000E+00  0.00000000E+00
  0.00000000E+00  0.00000000E+00  0.00000000E+00
  0.00000000E+00  0.00000000E+00  0.00000000E+00
  0.00000000E+00  0.00000000E+00  0.00000000E+00
  0.00000000E+00  0.00000000E+00  0.00000000E+00
  0.00000000E+00  0.00000000E+00  0.00000000E+00
  0.00000000E+00  0.00000000E+00  0.00000000E+00
  0.00000000E+00  0.00000000E+00  0.00000000E+00
  0.00000000E+00  0.00000000E+00  0.00000000E+00
  0.00000000E+00  0.00000000E+00  0.00000000E+00
  0.00000000E+00  0.00000000E+00  0.00000000E+00
  0.00000000E+00  0.00000000E+00  0.00000000E+00
  0.00000000E+00  0.00000000E+00  0.00000000E+00
  0.00000000E+00  0.00000000E+00  0.00000000E+00
  0.00000000E+00  0.00000000E+00  0.00000000E+00
  0.00000000E+00  0.00000000E+00  0.00000000E+00
  0.00000000E+00  0.00000000E+00  0.00000000E+00
  0.00000000E+00  0.00000000E+00  0.00000000E+00
  0.00000000E+00  0.00000000E+00  0.00000000E+00
  0.00000000E+00  0.00000000E+00  0.00000000E+00
  0.00000000E+00  0.00000000E+00  0.00000000E+00
  0.00000000E+00  0.00000000E+00  0.00000000E+00
  0.00000000E+00  0.00000000E+00  0.00000000E+00
  0.00000000E+00  0.00000000E+00  0.00000000E+00
  0.00000000E+00  0.00000000E+00  0.00000000E+00
  0.00000000E+00  0.00000000E+00  0.00000000E+00
  0.00000000E+00  0.00000000E+00  0.00000000E+00
  0.00000000E+00  0.00000000E+00  0.00000000E+00
  0.00000000E+00  0.00000000E+00  0.00000000E+00
  0.00000000E+00  0.00000000E+00  0.00000000E+00
  0.00000000E+00  0.00000000E+00  0.00000000E+00
  0.00000000E+00  0.00000000E+00  0.00000000E+00
  0.00000000E+00  0.00000000E+00  0.00000000E+00
  0.00000000E+00  0.00000000E+00  0.00000000E+00
  0.00000000E+00  0.00000000E+00  0.00000000E+00
  0.00000000E+00  0.00000000E+00  0.00000000E+00
  0.00000000E+00  0.00000000E+00  0.00000000E+00
  0.00000000E+00  0.00000000E+00  0.00000000E+00
  0.00000000E+00  0.00000000E+00  0.00000000E+00
  0.00000000E+00  0.00000000E+00  0.00000000E+00
  0.00000000E+00  0.00000000E+00  0.00000000E+00
  0.00000000E+00  0.00000000E+00  0.00000000E+00
  0.00000000E+00  0.00000000E+00  0.00000000E+00
  0.00000000E+00  0.00000000E+00  0.00000000E+00
  0.00000000E+00  0.00000000E+00  0.00000000E+00
  0.00000000E+00  0.00000000E+00  0.00000000E+00
  0.00000000E+00  0.00000000E+00  0.00000000E+00
  0.00000000E+00  0.00000000E+00  0.00000000E+00
  0.00000000E+00  0.00000000E+00  0.00000000E+00
  0.00000000E+00  0.00000000E+00  0.00000000E+00
  0.00000000E+00  0.00000000E+00  0.00000000E+00
  0.00000000E+00  0.00000000E+00  0.00000000E+00
  0.00000000E+00  0.00000000E+00  0.00000000E+00
  0.00000000E+00  0.00000000E+00  0.00000000E+00
  0.00000000E+00  0.00000000E+00  0.00000000E+00
  0.00000000E+00  0.00000000E+00  0.00000000E+00
  0.00000000E+00  0.00000000E+00  0.00000000E+00
  0.00000000E+00  0.00000000E+00  0.00000000E+00
  0.00000000E+00  0.00000000E+00  0.00000000E+00
  0.00000000E+00  0.00000000E+00  0.00000000E+00
  0.00000000E+00  0.00000000E+00  0.00000000E+00
  0.00000000E+00  0.00000000E+00  0.00000000E+00
  0.00000000E+00  0.00000000E+00  0.00000000E+00
  0.00000000E+00  0.00000000E+00  0.00000000E+00
  0.00000000E+00  0.00000000E+00  0.00000000E+00
  0.00000000E+00  0.00000000E+00  0.00000000E+00
  0.00000000E+00  0.00000000E+00  0.00000000E+00
  0.00000000E+00  0.00000000E+00  0.00000000E+00
  0.00000000E+00  0.00000000E+00  0.00000000E+00
  0.00000000E+00  0.00000000E+00  0.00000000E+00
  0.00000000E+00  0.00000000E+00  0.00000000E+00
  0.00000000E+00  0.00000000E+00  0.00000000E+00
  0.00000000E+00  0.00000000E+00  0.00000000E+00
  0.00000000E+00  0.00000000E+00  0.00000000E+00
  0.00000000E+00  0.00000000E+00  0.00000000E+00
  0.00000000E+00  0.00000000E+00  0.00000000E+00
  0.00000000E+00  0.00000000E+00  0.00000000E+00
  0.00000000E+00  0.00000000E+00  0.00000000E+00
  0.00000000E+00  0.00000000E+00  0.00000000E+00
  0.00000000E+00  0.00000000E+00  0.00000000E+00
  0.00000000E+00  0.00000000E+00  0.00000000E+00
  0.00000000E+00  0.00000000E+00  0.00000000E+00
  0.00000000E+00  0.00000000E+00  0.00000000E+00
  0.00000000E+00  0.00000000E+00  0.00000000E+00
  0.00000000E+00  0.00000000E+00  0.00000000E+00
  0.00000000E+00  0.00000000E+00  0.00000000E+00
  0.00000000E+00  0.00000000E+00  0.00000000E+00
  0.00000000E+00  0.00000000E+00  0.00000000E+00
  0.00000000E+00  0.00000000E+00  0.00000000E+00
  0.00000000E+00  0.00000000E+00  0.00000000E+00
  0.00000000E+00  0.00000000E+00  0.00000000E+00
  0.00000000E+00  0.00000000E+00  0.00000000E+00
  0.00000000E+00  0.00000000E+00  0.00000000E+00
  0.00000000E+00  0.00000000E+00  0.00000000E+00
  0.00000000E+00  0.00000000E+00  0.00000000E+00
  0.00000000E+00  0.00000000E+00  0.00000000E+00
  0.00000000E+00  0.00000000E+00  0.00000000E+00
  0.00000000E+00  0.00000000E+00  0.00000000E+00
  0.00000000E+00  0.00000000E+00  0.00000000E+00
  0.00000000E+00  0.00000000E+00  0.00000000E+00
  0.00000000E+00  0.00000000E+00  0.00000000E+00
  0.00000000E+00  0.00000000E+00  0.00000000E+00
  0.00000000E+00  0.00000000E+00  0.00000000E+00
  0.00000000E+00  0.00000000E+00  0.00000000E+00
  0.00000000E+00  0.00000000E+00  0.00000000E+00
  0.00000000E+00  0.00000000E+00  0.00000000E+00
  0.00000000E+00  0.00000000E+00  0.00000000E+00
  0.00000000E+00  0.00000000E+00  0.00000000E+00
  0.00000000E+00  0.00000000E+00  0.00000000E+00
  0.00000000E+00  0.00000000E+00  0.00000000E+00
  0.00000000E+00  0.00000000E+00  0.00000000E+00
