FCC Cu                                  
   1.00000000000000     
     2.5667977333000001    0.0000000000000000    0.0000000000000000
     1.2833988667000000    2.2229120434000000    0.0000000000000000
     0.0000000000000000    0.0000000000000000   29.6704711914000008
   Cu   H 
     8     2
Direct
 -0.0004294911095610  0.0008589822191220 -0.0003952790816439
  0.3329510305657288  0.3340979391282674  0.0668901350986000
  0.6658014574865155  0.6683970847672369  0.1351662605332480
 -0.0019848316686925  0.0039696633373850  0.2038349084112145
  0.3302202472126828  0.3395595058343587  0.2718670828824009
  0.6622745726388061  0.6754508544626558  0.3402847223282083
 -0.0057837293019144  0.0115674586038288  0.4081631287938772
  0.3283684755887694  0.3432630490821860  0.4751953003207535
  0.7962818746042949  0.4074362509342576  0.5476712343172221
  0.7736493530797270  0.4527012939741561  0.5730274680332529
 
  0.00000000E+00  0.00000000E+00  0.00000000E+00
  0.00000000E+00  0.00000000E+00  0.00000000E+00
  0.00000000E+00  0.00000000E+00  0.00000000E+00
  0.00000000E+00  0.00000000E+00  0.00000000E+00
  0.00000000E+00  0.00000000E+00  0.00000000E+00
  0.00000000E+00  0.00000000E+00  0.00000000E+00
  0.00000000E+00  0.00000000E+00  0.00000000E+00
  0.00000000E+00  0.00000000E+00  0.00000000E+00
  0.00000000E+00  0.00000000E+00  0.00000000E+00
  0.00000000E+00  0.00000000E+00  0.00000000E+00
