FCC Cu                                  
   1.00000000000000     
    10.8900003433000006    0.0000000000000000    0.0000000000000000
     0.0000000000000000   10.8900003433000006    0.0000000000000000
     0.0000000000000000    0.0000000000000000   27.7049999237000009
   Cu   O 
   144     1
Selective dynamics
Direct
  0.0000000000000000  0.0000000000000000  0.0000000000000000   F   F   F
  0.0000000000000000  0.3333333332935382  0.0000000000000000   F   F   F
  0.0000000000000000  0.6666666666789069  0.0000000000000000   F   F   F
  0.3333333332935382  0.0000000000000000  0.0000000000000000   F   F   F
  0.3333333332935382  0.3333333332935382  0.0000000000000000   F   F   F
  0.3333333332935382  0.6666666666789069  0.0000000000000000   F   F   F
  0.6666666666789069  0.0000000000000000  0.0000000000000000   F   F   F
  0.6666666666789069  0.3333333332935382  0.0000000000000000   F   F   F
  0.6666666666789069  0.6666666666789069  0.0000000000000000   F   F   F
  0.1666666666467691  0.1666666666467691  0.0000000000000000   F   F   F
  0.1666666666467691  0.4999999999403144  0.0000000000000000   F   F   F
  0.1666666666467691  0.8333333333256832  0.0000000000000000   F   F   F
  0.4999999999403144  0.1666666666467691  0.0000000000000000   F   F   F
  0.4999999999403144  0.4999999999403144  0.0000000000000000   F   F   F
  0.4999999999403144  0.8333333333256832  0.0000000000000000   F   F   F
  0.8333333333256832  0.1666666666467691  0.0000000000000000   F   F   F
  0.8333333333256832  0.4999999999403144  0.0000000000000000   F   F   F
  0.8333333333256832  0.8333333333256832  0.0000000000000000   F   F   F
  0.0000000000000000  0.1666666666467691  0.0655116416169861   F   F   F
  0.0000000000000000  0.4999999999403144  0.0655116416169861   F   F   F
  0.0000000000000000  0.8333333333256832  0.0655116416169861   F   F   F
  0.3333333332935382  0.1666666666467691  0.0655116416169861   F   F   F
  0.3333333332935382  0.4999999999403144  0.0655116416169861   F   F   F
  0.3333333332935382  0.8333333333256832  0.0655116416169861   F   F   F
  0.6666666666789069  0.1666666666467691  0.0655116416169861   F   F   F
  0.6666666666789069  0.4999999999403144  0.0655116416169861   F   F   F
  0.6666666666789069  0.8333333333256832  0.0655116416169861   F   F   F
  0.1666666666467691  0.0000000000000000  0.0655116416169861   F   F   F
  0.1666666666467691  0.3333333332935382  0.0655116416169861   F   F   F
  0.1666666666467691  0.6666666666789069  0.0655116416169861   F   F   F
  0.4999999999403144  0.0000000000000000  0.0655116416169861   F   F   F
  0.4999999999403144  0.3333333332935382  0.0655116416169861   F   F   F
  0.4999999999403144  0.6666666666789069  0.0655116416169861   F   F   F
  0.8333333333256832  0.0000000000000000  0.0655116416169861   F   F   F
  0.8333333333256832  0.3333333332935382  0.0655116416169861   F   F   F
  0.8333333333256832  0.6666666666789069  0.0655116416169861   F   F   F
  0.0000000000000000  0.0000000000000000  0.1311955341119244   F   F   F
  0.0000000000000000  0.3333333332935382  0.1311955341119244   F   F   F
  0.0000000000000000  0.6666666666789069  0.1311955341119244   F   F   F
  0.3333333332935382  0.0000000000000000  0.1311955341119244   F   F   F
  0.3333333332935382  0.3333333332935382  0.1311955341119244   F   F   F
  0.3333333332935382  0.6666666666789069  0.1311955341119244   F   F   F
  0.6666666666789069  0.0000000000000000  0.1311955341119244   F   F   F
  0.6666666666789069  0.3333333332935382  0.1311955341119244   F   F   F
  0.6666666666789069  0.6666666666789069  0.1311955341119244   F   F   F
  0.1666666666467691  0.1666666666467691  0.1311955341119244   F   F   F
  0.1666666666467691  0.4999999999403144  0.1311955341119244   F   F   F
  0.1666666666467691  0.8333333333256832  0.1311955341119244   F   F   F
  0.4999999999403144  0.1666666666467691  0.1311955341119244   F   F   F
  0.4999999999403144  0.4999999999403144  0.1311955341119244   F   F   F
  0.4999999999403144  0.8333333333256832  0.1311955341119244   F   F   F
  0.8333333333256832  0.1666666666467691  0.1311955341119244   F   F   F
  0.8333333333256832  0.4999999999403144  0.1311955341119244   F   F   F
  0.8333333333256832  0.8333333333256832  0.1311955341119244   F   F   F
 -0.0001195776353117  0.1667262023630968  0.1944579771573855   T   T   T
 -0.0001195776353117  0.4999404642239867  0.1944579771573855   T   T   T
  0.0000908099367644  0.8333333333256832  0.1944616753874203   T   T   T
  0.3333333332935382  0.1668160447762669  0.1945945459133371   T   T   T
  0.3333333332935382  0.4998506218108166  0.1945945459133371   T   T   T
  0.3333333332935382  0.8333333333256832  0.1945582010787326   T   T   T
  0.6667862443142185  0.1667262023630968  0.1944579771573855   T   T   T
  0.6667862443142185  0.4999404642239867  0.1944579771573855   T   T   T
  0.6665758567421427  0.8333333333256832  0.1944616753874203   T   T   T
  0.1667262023630968 -0.0001195776353117  0.1944579771573855   T   T   T
  0.1668160447762669  0.3333333332935382  0.1945945459133371   T   T   T
  0.1667262023630968  0.6667862443142185  0.1944579771573855   T   T   T
  0.4999404642239867 -0.0001195776353117  0.1944579771573855   T   T   T
  0.4998506218108166  0.3333333332935382  0.1945945459133371   T   T   T
  0.4999404642239867  0.6667862443142185  0.1944579771573855   T   T   T
  0.8333333333256832  0.0000908099367644  0.1944616753874203   T   T   T
  0.8333333333256832  0.3333333332935382  0.1945582010787326   T   T   T
  0.8333333333256832  0.6665758567421427  0.1944616753874203   T   T   T
  0.0001187347116885  0.0001187347116885  0.2577203722739086   T   T   T
 -0.0002336705966176  0.3333333332935382  0.2578095394721093   T   T   T
  0.0001187347116885  0.6665479319672184  0.2577203722739086   T   T   T
  0.3333333332935382 -0.0002336705966176  0.2578095394721093   T   T   T
  0.3333333332935382  0.3333333332935382  0.2579084987636761   T   T   T
  0.3333333332935382  0.6669003372755246  0.2578095394721093   T   T   T
  0.6665479319672184  0.0001187347116885  0.2577203722739086   T   T   T
  0.6669003372755246  0.3333333332935382  0.2578095394721093   T   T   T
  0.6665479319672184  0.6665479319672184  0.2577203722739086   T   T   T
  0.1666153796332129  0.1666153796332129  0.2576510676289788   T   T   T
  0.1666153796332129  0.5000512869538706  0.2576510676289788   T   T   T
  0.1668414219709771  0.8333333333256832  0.2578387325155782   T   T   T
  0.5000512869538706  0.1666153796332129  0.2576510676289788   T   T   T
  0.5000512869538706  0.5000512869538706  0.2576510676289788   T   T   T
  0.4998252446161064  0.8333333333256832  0.2578387325155782   T   T   T
  0.8333333333256832  0.1668414219709771  0.2578387325155782   T   T   T
  0.8333333333256832  0.4998252446161064  0.2578387325155782   T   T   T
  0.8333333333256832  0.8333333333256832  0.2576180526294427   T   T   T
  0.0003861786012630  0.1668302904579189  0.3211344157343692   T   T   T
  0.0003861786012630  0.4998363761291645  0.3211344157343692   T   T   T
  0.0000182132690796  0.8333333333256832  0.3210050863717094   T   T   T
  0.3333333332935382  0.1657588444561335  0.3209656706789889   T   T   T
  0.3333333332935382  0.5009078221309501  0.3209656706789889   T   T   T
  0.3333333332935382  0.8333333333256832  0.3215563435796577   T   T   T
  0.6662804880776438  0.1668302904579189  0.3211344157343692   T   T   T
  0.6662804880776438  0.4998363761291645  0.3211344157343692   T   T   T
  0.6666484534098271  0.8333333333256832  0.3210050863717094   T   T   T
  0.1668302904579189  0.0003861786012630  0.3211344157343692   T   T   T
  0.1657588444561335  0.3333333332935382  0.3209656706789889   T   T   T
  0.1668302904579189  0.6662804880776438  0.3211344157343692   T   T   T
  0.4998363761291645  0.0003861786012630  0.3211344157343692   T   T   T
  0.5009078221309501  0.3333333332935382  0.3209656706789889   T   T   T
  0.4998363761291645  0.6662804880776438  0.3211344157343692   T   T   T
  0.8333333333256832  0.0000182132690796  0.3210050863717094   T   T   T
  0.8333333333256832  0.3333333332935382  0.3215563435796577   T   T   T
  0.8333333333256832  0.6666484534098271  0.3210050863717094   T   T   T
  0.0000209817741845  0.0000209817741845  0.3848476693097324   T   T   T
  0.0017455011448414  0.3333333332935382  0.3859848496467957   T   T   T
  0.0000209817741845  0.6666456849047224  0.3848476693097324   T   T   T
  0.3333333332935382  0.0017455011448414  0.3859848496467957   T   T   T
  0.3333333332935382  0.3333333332935382  0.3824578745656470   T   T   T
  0.3333333332935382  0.6649211655340656  0.3859848496467957   T   T   T
  0.6666456849047224  0.0000209817741845  0.3848476693097324   T   T   T
  0.6649211655340656  0.3333333332935382  0.3859848496467957   T   T   T
  0.6666456849047224  0.6666456849047224  0.3848476693097324   T   T   T
  0.1674952312483710  0.1674952312483710  0.3853805666058557   T   T   T
  0.1674952312483710  0.4991714353387126  0.3853805666058557   T   T   T
  0.1669284152630211  0.8333333333256832  0.3847608429714926   T   T   T
  0.4991714353387126  0.1674952312483710  0.3853805666058557   T   T   T
  0.4991714353387126  0.4991714353387126  0.3853805666058557   T   T   T
  0.4997382513240625  0.8333333333256832  0.3847608429714926   T   T   T
  0.8333333333256832  0.1669284152630211  0.3847608429714926   T   T   T
  0.8333333333256832  0.4997382513240625  0.3847608429714926   T   T   T
  0.8333333333256832  0.8333333333256832  0.3847559866658122   T   T   T
 -0.0008051740958408  0.1658966711715491  0.4474236938386462   T   T   T
 -0.0008051740958408  0.5007699954155342  0.4474236938386462   T   T   T
 -0.0000467192437305  0.8333333333256832  0.4474212718453752   T   T   T
  0.3333333332935382  0.1646107983686488  0.4501999679734535   T   T   T
  0.3333333332935382  0.5020558682184347  0.4501999679734535   T   T   T
  0.3333333332935382  0.8333333333256832  0.4476810255717123   T   T   T
  0.6674718407747480  0.1658966711715491  0.4474236938386462   T   T   T
  0.6674718407747480  0.5007699954155342  0.4474236938386462   T   T   T
  0.6667133859226374  0.8333333333256832  0.4474212718453752   T   T   T
  0.1658966711715491 -0.0008051740958408  0.4474236938386462   T   T   T
  0.1646107983686488  0.3333333332935382  0.4501999679734535   T   T   T
  0.1658966711715491  0.6674718407747480  0.4474236938386462   T   T   T
  0.5007699954155342 -0.0008051740958408  0.4474236938386462   T   T   T
  0.5020558682184347  0.3333333332935382  0.4501999679734535   T   T   T
  0.5007699954155342  0.6674718407747480  0.4474236938386462   T   T   T
  0.8333333333256832 -0.0000467192437305  0.4474212718453752   T   T   T
  0.8333333333256832  0.3333333332935382  0.4476810255717123   T   T   T
  0.8333333333256832  0.6667133859226374  0.4474212718453752   T   T   T
  0.3333333332935382  0.3333333332935382  0.4788487181460420   T   T   T
 
  0.00000000E+00  0.00000000E+00  0.00000000E+00
  0.00000000E+00  0.00000000E+00  0.00000000E+00
  0.00000000E+00  0.00000000E+00  0.00000000E+00
  0.00000000E+00  0.00000000E+00  0.00000000E+00
  0.00000000E+00  0.00000000E+00  0.00000000E+00
  0.00000000E+00  0.00000000E+00  0.00000000E+00
  0.00000000E+00  0.00000000E+00  0.00000000E+00
  0.00000000E+00  0.00000000E+00  0.00000000E+00
  0.00000000E+00  0.00000000E+00  0.00000000E+00
  0.00000000E+00  0.00000000E+00  0.00000000E+00
  0.00000000E+00  0.00000000E+00  0.00000000E+00
  0.00000000E+00  0.00000000E+00  0.00000000E+00
  0.00000000E+00  0.00000000E+00  0.00000000E+00
  0.00000000E+00  0.00000000E+00  0.00000000E+00
  0.00000000E+00  0.00000000E+00  0.00000000E+00
  0.00000000E+00  0.00000000E+00  0.00000000E+00
  0.00000000E+00  0.00000000E+00  0.00000000E+00
  0.00000000E+00  0.00000000E+00  0.00000000E+00
  0.00000000E+00  0.00000000E+00  0.00000000E+00
  0.00000000E+00  0.00000000E+00  0.00000000E+00
  0.00000000E+00  0.00000000E+00  0.00000000E+00
  0.00000000E+00  0.00000000E+00  0.00000000E+00
  0.00000000E+00  0.00000000E+00  0.00000000E+00
  0.00000000E+00  0.00000000E+00  0.00000000E+00
  0.00000000E+00  0.00000000E+00  0.00000000E+00
  0.00000000E+00  0.00000000E+00  0.00000000E+00
  0.00000000E+00  0.00000000E+00  0.00000000E+00
  0.00000000E+00  0.00000000E+00  0.00000000E+00
  0.00000000E+00  0.00000000E+00  0.00000000E+00
  0.00000000E+00  0.00000000E+00  0.00000000E+00
  0.00000000E+00  0.00000000E+00  0.00000000E+00
  0.00000000E+00  0.00000000E+00  0.00000000E+00
  0.00000000E+00  0.00000000E+00  0.00000000E+00
  0.00000000E+00  0.00000000E+00  0.00000000E+00
  0.00000000E+00  0.00000000E+00  0.00000000E+00
  0.00000000E+00  0.00000000E+00  0.00000000E+00
  0.00000000E+00  0.00000000E+00  0.00000000E+00
  0.00000000E+00  0.00000000E+00  0.00000000E+00
  0.00000000E+00  0.00000000E+00  0.00000000E+00
  0.00000000E+00  0.00000000E+00  0.00000000E+00
  0.00000000E+00  0.00000000E+00  0.00000000E+00
  0.00000000E+00  0.00000000E+00  0.00000000E+00
  0.00000000E+00  0.00000000E+00  0.00000000E+00
  0.00000000E+00  0.00000000E+00  0.00000000E+00
  0.00000000E+00  0.00000000E+00  0.00000000E+00
  0.00000000E+00  0.00000000E+00  0.00000000E+00
  0.00000000E+00  0.00000000E+00  0.00000000E+00
  0.00000000E+00  0.00000000E+00  0.00000000E+00
  0.00000000E+00  0.00000000E+00  0.00000000E+00
  0.00000000E+00  0.00000000E+00  0.00000000E+00
  0.00000000E+00  0.00000000E+00  0.00000000E+00
  0.00000000E+00  0.00000000E+00  0.00000000E+00
  0.00000000E+00  0.00000000E+00  0.00000000E+00
  0.00000000E+00  0.00000000E+00  0.00000000E+00
  0.00000000E+00  0.00000000E+00  0.00000000E+00
  0.00000000E+00  0.00000000E+00  0.00000000E+00
  0.00000000E+00  0.00000000E+00  0.00000000E+00
  0.00000000E+00  0.00000000E+00  0.00000000E+00
  0.00000000E+00  0.00000000E+00  0.00000000E+00
  0.00000000E+00  0.00000000E+00  0.00000000E+00
  0.00000000E+00  0.00000000E+00  0.00000000E+00
  0.00000000E+00  0.00000000E+00  0.00000000E+00
  0.00000000E+00  0.00000000E+00  0.00000000E+00
  0.00000000E+00  0.00000000E+00  0.00000000E+00
  0.00000000E+00  0.00000000E+00  0.00000000E+00
  0.00000000E+00  0.00000000E+00  0.00000000E+00
  0.00000000E+00  0.00000000E+00  0.00000000E+00
  0.00000000E+00  0.00000000E+00  0.00000000E+00
  0.00000000E+00  0.00000000E+00  0.00000000E+00
  0.00000000E+00  0.00000000E+00  0.00000000E+00
  0.00000000E+00  0.00000000E+00  0.00000000E+00
  0.00000000E+00  0.00000000E+00  0.00000000E+00
  0.00000000E+00  0.00000000E+00  0.00000000E+00
  0.00000000E+00  0.00000000E+00  0.00000000E+00
  0.00000000E+00  0.00000000E+00  0.00000000E+00
  0.00000000E+00  0.00000000E+00  0.00000000E+00
  0.00000000E+00  0.00000000E+00  0.00000000E+00
  0.00000000E+00  0.00000000E+00  0.00000000E+00
  0.00000000E+00  0.00000000E+00  0.00000000E+00
  0.00000000E+00  0.00000000E+00  0.00000000E+00
  0.00000000E+00  0.00000000E+00  0.00000000E+00
  0.00000000E+00  0.00000000E+00  0.00000000E+00
  0.00000000E+00  0.00000000E+00  0.00000000E+00
  0.00000000E+00  0.00000000E+00  0.00000000E+00
  0.00000000E+00  0.00000000E+00  0.00000000E+00
  0.00000000E+00  0.00000000E+00  0.00000000E+00
  0.00000000E+00  0.00000000E+00  0.00000000E+00
  0.00000000E+00  0.00000000E+00  0.00000000E+00
  0.00000000E+00  0.00000000E+00  0.00000000E+00
  0.00000000E+00  0.00000000E+00  0.00000000E+00
  0.00000000E+00  0.00000000E+00  0.00000000E+00
  0.00000000E+00  0.00000000E+00  0.00000000E+00
  0.00000000E+00  0.00000000E+00  0.00000000E+00
  0.00000000E+00  0.00000000E+00  0.00000000E+00
  0.00000000E+00  0.00000000E+00  0.00000000E+00
  0.00000000E+00  0.00000000E+00  0.00000000E+00
  0.00000000E+00  0.00000000E+00  0.00000000E+00
  0.00000000E+00  0.00000000E+00  0.00000000E+00
  0.00000000E+00  0.00000000E+00  0.00000000E+00
  0.00000000E+00  0.00000000E+00  0.00000000E+00
  0.00000000E+00  0.00000000E+00  0.00000000E+00
  0.00000000E+00  0.00000000E+00  0.00000000E+00
  0.00000000E+00  0.00000000E+00  0.00000000E+00
  0.00000000E+00  0.00000000E+00  0.00000000E+00
  0.00000000E+00  0.00000000E+00  0.00000000E+00
  0.00000000E+00  0.00000000E+00  0.00000000E+00
  0.00000000E+00  0.00000000E+00  0.00000000E+00
  0.00000000E+00  0.00000000E+00  0.00000000E+00
  0.00000000E+00  0.00000000E+00  0.00000000E+00
  0.00000000E+00  0.00000000E+00  0.00000000E+00
  0.00000000E+00  0.00000000E+00  0.00000000E+00
  0.00000000E+00  0.00000000E+00  0.00000000E+00
  0.00000000E+00  0.00000000E+00  0.00000000E+00
  0.00000000E+00  0.00000000E+00  0.00000000E+00
  0.00000000E+00  0.00000000E+00  0.00000000E+00
  0.00000000E+00  0.00000000E+00  0.00000000E+00
  0.00000000E+00  0.00000000E+00  0.00000000E+00
  0.00000000E+00  0.00000000E+00  0.00000000E+00
  0.00000000E+00  0.00000000E+00  0.00000000E+00
  0.00000000E+00  0.00000000E+00  0.00000000E+00
  0.00000000E+00  0.00000000E+00  0.00000000E+00
  0.00000000E+00  0.00000000E+00  0.00000000E+00
  0.00000000E+00  0.00000000E+00  0.00000000E+00
  0.00000000E+00  0.00000000E+00  0.00000000E+00
  0.00000000E+00  0.00000000E+00  0.00000000E+00
  0.00000000E+00  0.00000000E+00  0.00000000E+00
  0.00000000E+00  0.00000000E+00  0.00000000E+00
  0.00000000E+00  0.00000000E+00  0.00000000E+00
  0.00000000E+00  0.00000000E+00  0.00000000E+00
  0.00000000E+00  0.00000000E+00  0.00000000E+00
  0.00000000E+00  0.00000000E+00  0.00000000E+00
  0.00000000E+00  0.00000000E+00  0.00000000E+00
  0.00000000E+00  0.00000000E+00  0.00000000E+00
  0.00000000E+00  0.00000000E+00  0.00000000E+00
  0.00000000E+00  0.00000000E+00  0.00000000E+00
  0.00000000E+00  0.00000000E+00  0.00000000E+00
  0.00000000E+00  0.00000000E+00  0.00000000E+00
  0.00000000E+00  0.00000000E+00  0.00000000E+00
  0.00000000E+00  0.00000000E+00  0.00000000E+00
  0.00000000E+00  0.00000000E+00  0.00000000E+00
  0.00000000E+00  0.00000000E+00  0.00000000E+00
  0.00000000E+00  0.00000000E+00  0.00000000E+00
  0.00000000E+00  0.00000000E+00  0.00000000E+00
  0.00000000E+00  0.00000000E+00  0.00000000E+00
  0.00000000E+00  0.00000000E+00  0.00000000E+00
