FCC Cu                                  
   1.00000000000000     
     2.5667977333000001    0.0000000000000000    0.0000000000000000
     1.2833988667000000    2.2229120434000000    0.0000000000000000
     0.0000000000000000    0.0000000000000000   29.6704711914000008
   Cu   H 
     8     2
Direct
 -0.0001417997727143  0.0002835995454286 -0.0004517973798995
  0.3327131881138168  0.3345736240320913  0.0667579490145160
  0.6646216234282970  0.6707567528836738  0.1348130109584370
 -0.0049520768355483  0.0099041536710966  0.2031151447543254
  0.3264917333800239  0.3470165334996770  0.2707788214859340
  0.6589254801928363  0.6821490393545953  0.3391949236784109
 -0.0074144468282558  0.0148288936565116  0.4071001992128793
  0.3270126856549364  0.3459746289498518  0.4741752923504952
  0.3123432758281314  0.3753134486034687  0.5652271917530237
  0.2226024254204417  0.5547951494057676  0.5432155509992217
 
  0.00000000E+00  0.00000000E+00  0.00000000E+00
  0.00000000E+00  0.00000000E+00  0.00000000E+00
  0.00000000E+00  0.00000000E+00  0.00000000E+00
  0.00000000E+00  0.00000000E+00  0.00000000E+00
  0.00000000E+00  0.00000000E+00  0.00000000E+00
  0.00000000E+00  0.00000000E+00  0.00000000E+00
  0.00000000E+00  0.00000000E+00  0.00000000E+00
  0.00000000E+00  0.00000000E+00  0.00000000E+00
  0.00000000E+00  0.00000000E+00  0.00000000E+00
  0.00000000E+00  0.00000000E+00  0.00000000E+00
