FCC Cu                                  
   1.00000000000000     
     3.6300001144000000    0.0000000000000000    0.0000000000000000
     0.0000000000000000    2.5667977333000001    0.0000000000000000
     0.0000000000000000    0.0000000000000000   23.9837913512999990
   Cu   H 
     8     2
Direct
  0.0000000000000000  0.0037234732190335 -0.0045778373036983
  0.4999999999449045  0.5039188789260417  0.0427373993656896
  0.0000000000000000  0.0045239362800257  0.0971622420783635
  0.4999999999449045  0.5057806945147331  0.1493644378409691
  0.0000000000000000  0.0067951207542187  0.2023106723293175
  0.4999999999449045  0.5086267280415343  0.2543753840656680
  0.0000000000000000  0.0092925491882146  0.3088607291404752
  0.4999999999449045  0.5091305124396196  0.3558879625418722
  0.9999999998898090  0.5608174371978094  0.4740895438789188
  0.9999999998898090  0.6780251794439246  0.4451191149337342
 
  0.00000000E+00  0.00000000E+00  0.00000000E+00
  0.00000000E+00  0.00000000E+00  0.00000000E+00
  0.00000000E+00  0.00000000E+00  0.00000000E+00
  0.00000000E+00  0.00000000E+00  0.00000000E+00
  0.00000000E+00  0.00000000E+00  0.00000000E+00
  0.00000000E+00  0.00000000E+00  0.00000000E+00
  0.00000000E+00  0.00000000E+00  0.00000000E+00
  0.00000000E+00  0.00000000E+00  0.00000000E+00
  0.00000000E+00  0.00000000E+00  0.00000000E+00
  0.00000000E+00  0.00000000E+00  0.00000000E+00
