FCC Cu                                  
   1.00000000000000     
     3.6300001144000000    0.0000000000000000    0.0000000000000000
     0.0000000000000000    3.6300001144000000    0.0000000000000000
     0.0000000000000000    0.0000000000000000   27.7049999237000009
   Cu   H 
    16     2
Direct
 -0.0062803741103156 -0.0050523587276084 -0.0021315711064029
  0.4937695802032644  0.4951629049761751 -0.0021385245091774
 -0.0091059296648993  0.4937465797857034  0.0607781429817260
  0.4917319004476841 -0.0055586505995534  0.0608069639108889
 -0.0146464711985258 -0.0080706517457384  0.1240987448828217
  0.4854835808310730  0.4913632915964367  0.1241118703424327
 -0.0189318407806092  0.4892161545993996  0.1870107755285386
  0.4812629500845080 -0.0103612243812217  0.1870245525570857
 -0.0212483693644663 -0.0119673071083126  0.2488423835559929
  0.4790145307246252  0.4878696923409164  0.2488919905042735
 -0.0231734933214911  0.4866597747590263  0.3117917415547091
  0.4773447792179683 -0.0132048657539093  0.3118077220298669
 -0.0237285097398379 -0.0137957272526056  0.3750103013971319
  0.4760739690574600  0.4863512715232923  0.3750671954169338
 -0.0241982833631276  0.4867423293296158  0.4376830878845876
  0.4754146030509364 -0.0135152842391132  0.4380234426170095
  0.9468930010200642  0.3821054303130521  0.5324984706361942
  0.8343243762996253  0.4878182752648059  0.5507795439861547
 
  0.00000000E+00  0.00000000E+00  0.00000000E+00
  0.00000000E+00  0.00000000E+00  0.00000000E+00
  0.00000000E+00  0.00000000E+00  0.00000000E+00
  0.00000000E+00  0.00000000E+00  0.00000000E+00
  0.00000000E+00  0.00000000E+00  0.00000000E+00
  0.00000000E+00  0.00000000E+00  0.00000000E+00
  0.00000000E+00  0.00000000E+00  0.00000000E+00
  0.00000000E+00  0.00000000E+00  0.00000000E+00
  0.00000000E+00  0.00000000E+00  0.00000000E+00
  0.00000000E+00  0.00000000E+00  0.00000000E+00
  0.00000000E+00  0.00000000E+00  0.00000000E+00
  0.00000000E+00  0.00000000E+00  0.00000000E+00
  0.00000000E+00  0.00000000E+00  0.00000000E+00
  0.00000000E+00  0.00000000E+00  0.00000000E+00
  0.00000000E+00  0.00000000E+00  0.00000000E+00
  0.00000000E+00  0.00000000E+00  0.00000000E+00
  0.00000000E+00  0.00000000E+00  0.00000000E+00
  0.00000000E+00  0.00000000E+00  0.00000000E+00
