FCC Cu                                  
   1.00000000000000     
     3.6300001144000000    0.0000000000000000    0.0000000000000000
     0.0000000000000000    2.5667977333000001    0.0000000000000000
     0.0000000000000000    0.0000000000000000   23.9837913512999990
   Cu   H 
     8     2
Direct
  0.0000000000000000 -0.0052127507284909 -0.0052946638597695
  0.4999999999449045  0.4940343110442759  0.0420404400468433
  0.0000000000000000 -0.0077008160039840  0.0963317494433128
  0.4999999999449045  0.4900812657191178  0.1487335399406366
  0.0000000000000000 -0.0137086495638575  0.2018366580296315
  0.4999999999449045  0.4817987637372511  0.2540170557156194
  0.0000000000000000 -0.0233134906789500  0.3085746160502170
  0.4999999999449045  0.4742870308752000  0.3559390780500108
  0.9999999999173639  0.1429532734314996  0.4470171893539478
  0.9999999999173639  0.2574155722899639  0.4761339861008611
 
  0.00000000E+00  0.00000000E+00  0.00000000E+00
  0.00000000E+00  0.00000000E+00  0.00000000E+00
  0.00000000E+00  0.00000000E+00  0.00000000E+00
  0.00000000E+00  0.00000000E+00  0.00000000E+00
  0.00000000E+00  0.00000000E+00  0.00000000E+00
  0.00000000E+00  0.00000000E+00  0.00000000E+00
  0.00000000E+00  0.00000000E+00  0.00000000E+00
  0.00000000E+00  0.00000000E+00  0.00000000E+00
  0.00000000E+00  0.00000000E+00  0.00000000E+00
  0.00000000E+00  0.00000000E+00  0.00000000E+00
