FCC Cu                                  
   1.00000000000000     
    10.8900003433000006    0.0000000000000000    0.0000000000000000
     0.0000000000000000   10.8900003433000006    0.0000000000000000
     0.0000000000000000    0.0000000000000000   27.7049999237000009
   Cu   H 
   144     1
Selective dynamics
Direct
  0.0000000000000000  0.0000000000000000  0.0000000000000000   F   F   F
  0.0000000000000000  0.3333333332935382  0.0000000000000000   F   F   F
  0.0000000000000000  0.6666666666789069  0.0000000000000000   F   F   F
  0.3333333332935382  0.0000000000000000  0.0000000000000000   F   F   F
  0.3333333332935382  0.3333333332935382  0.0000000000000000   F   F   F
  0.3333333332935382  0.6666666666789069  0.0000000000000000   F   F   F
  0.6666666666789069  0.0000000000000000  0.0000000000000000   F   F   F
  0.6666666666789069  0.3333333332935382  0.0000000000000000   F   F   F
  0.6666666666789069  0.6666666666789069  0.0000000000000000   F   F   F
  0.1666666666467691  0.1666666666467691  0.0000000000000000   F   F   F
  0.1666666666467691  0.4999999999403144  0.0000000000000000   F   F   F
  0.1666666666467691  0.8333333333256832  0.0000000000000000   F   F   F
  0.4999999999403144  0.1666666666467691  0.0000000000000000   F   F   F
  0.4999999999403144  0.4999999999403144  0.0000000000000000   F   F   F
  0.4999999999403144  0.8333333333256832  0.0000000000000000   F   F   F
  0.8333333333256832  0.1666666666467691  0.0000000000000000   F   F   F
  0.8333333333256832  0.4999999999403144  0.0000000000000000   F   F   F
  0.8333333333256832  0.8333333333256832  0.0000000000000000   F   F   F
  0.0000000000000000  0.1666666666467691  0.0655116416169861   F   F   F
  0.0000000000000000  0.4999999999403144  0.0655116416169861   F   F   F
  0.0000000000000000  0.8333333333256832  0.0655116416169861   F   F   F
  0.3333333332935382  0.1666666666467691  0.0655116416169861   F   F   F
  0.3333333332935382  0.4999999999403144  0.0655116416169861   F   F   F
  0.3333333332935382  0.8333333333256832  0.0655116416169861   F   F   F
  0.6666666666789069  0.1666666666467691  0.0655116416169861   F   F   F
  0.6666666666789069  0.4999999999403144  0.0655116416169861   F   F   F
  0.6666666666789069  0.8333333333256832  0.0655116416169861   F   F   F
  0.1666666666467691  0.0000000000000000  0.0655116416169861   F   F   F
  0.1666666666467691  0.3333333332935382  0.0655116416169861   F   F   F
  0.1666666666467691  0.6666666666789069  0.0655116416169861   F   F   F
  0.4999999999403144  0.0000000000000000  0.0655116416169861   F   F   F
  0.4999999999403144  0.3333333332935382  0.0655116416169861   F   F   F
  0.4999999999403144  0.6666666666789069  0.0655116416169861   F   F   F
  0.8333333333256832  0.0000000000000000  0.0655116416169861   F   F   F
  0.8333333333256832  0.3333333332935382  0.0655116416169861   F   F   F
  0.8333333333256832  0.6666666666789069  0.0655116416169861   F   F   F
  0.0000000000000000  0.0000000000000000  0.1311955341119244   F   F   F
  0.0000000000000000  0.3333333332935382  0.1311955341119244   F   F   F
  0.0000000000000000  0.6666666666789069  0.1311955341119244   F   F   F
  0.3333333332935382  0.0000000000000000  0.1311955341119244   F   F   F
  0.3333333332935382  0.3333333332935382  0.1311955341119244   F   F   F
  0.3333333332935382  0.6666666666789069  0.1311955341119244   F   F   F
  0.6666666666789069  0.0000000000000000  0.1311955341119244   F   F   F
  0.6666666666789069  0.3333333332935382  0.1311955341119244   F   F   F
  0.6666666666789069  0.6666666666789069  0.1311955341119244   F   F   F
  0.1666666666467691  0.1666666666467691  0.1311955341119244   F   F   F
  0.1666666666467691  0.4999999999403144  0.1311955341119244   F   F   F
  0.1666666666467691  0.8333333333256832  0.1311955341119244   F   F   F
  0.4999999999403144  0.1666666666467691  0.1311955341119244   F   F   F
  0.4999999999403144  0.4999999999403144  0.1311955341119244   F   F   F
  0.4999999999403144  0.8333333333256832  0.1311955341119244   F   F   F
  0.8333333333256832  0.1666666666467691  0.1311955341119244   F   F   F
  0.8333333333256832  0.4999999999403144  0.1311955341119244   F   F   F
  0.8333333333256832  0.8333333333256832  0.1311955341119244   F   F   F
  0.0001398678464859  0.1667142393458451  0.1944871532482294   T   T   T
  0.0001398678464859  0.4999524272412383  0.1944871532482294   T   T   T
 -0.0000296408899525  0.8333333333256832  0.1944201905948469   T   T   T
  0.3333333332935382  0.1666941930695040  0.1944579581261138   T   T   T
  0.3333333332935382  0.4999724735175795  0.1944579581261138   T   T   T
  0.3333333332935382  0.8333333333256832  0.1946094905880660   T   T   T
  0.6665267988324211  0.1667142393458451  0.1944871532482294   T   T   T
  0.6665267988324211  0.4999524272412383  0.1944871532482294   T   T   T
  0.6666963075688591  0.8333333333256832  0.1944201905948469   T   T   T
  0.1667142393458451  0.0001398678464859  0.1944871532482294   T   T   T
  0.1666941930695040  0.3333333332935382  0.1944579581261138   T   T   T
  0.1667142393458451  0.6665267988324211  0.1944871532482294   T   T   T
  0.4999524272412383  0.0001398678464859  0.1944871532482294   T   T   T
  0.4999724735175795  0.3333333332935382  0.1944579581261138   T   T   T
  0.4999524272412383  0.6665267988324211  0.1944871532482294   T   T   T
  0.8333333333256832 -0.0000296408899525  0.1944201905948469   T   T   T
  0.8333333333256832  0.3333333332935382  0.1946094905880660   T   T   T
  0.8333333333256832  0.6666963075688591  0.1944201905948469   T   T   T
  0.0000397210545469  0.0000397210545469  0.2576404537823718   T   T   T
 -0.0001530893532933  0.3333333332935382  0.2577795874884649   T   T   T
  0.0000397210545469  0.6666269456243602  0.2576404537823718   T   T   T
  0.3333333332935382 -0.0001530893532933  0.2577795874884649   T   T   T
  0.3333333332935382  0.3333333332935382  0.2576959582229267   T   T   T
  0.3333333332935382  0.6668197560322002  0.2577795874884649   T   T   T
  0.6666269456243602  0.0000397210545469  0.2576404537823718   T   T   T
  0.6668197560322002  0.3333333332935382  0.2577795874884649   T   T   T
  0.6666269456243602  0.6666269456243602  0.2576404537823718   T   T   T
  0.1667595491042922  0.1667595491042922  0.2577505655769727   T   T   T
  0.1667595491042922  0.4999071174827912  0.2577505655769727   T   T   T
  0.1666826427845775  0.8333333333256832  0.2575932775435373   T   T   T
  0.4999071174827912  0.1667595491042922  0.2577505655769727   T   T   T
  0.4999071174827912  0.4999071174827912  0.2577505655769727   T   T   T
  0.4999840238025062  0.8333333333256832  0.2575932775435373   T   T   T
  0.8333333333256832  0.1666826427845775  0.2575932775435373   T   T   T
  0.8333333333256832  0.4999840238025062  0.2575932775435373   T   T   T
  0.8333333333256832  0.8333333333256832  0.2576912024856471   T   T   T
 -0.0003456340522817  0.1665594249484694  0.3209243646998345   T   T   T
 -0.0003456340522817  0.5001072416386141  0.3209243646998345   T   T   T
  0.0000550755189358  0.8333333333256832  0.3209411698776545   T   T   T
  0.3333333332935382  0.1659283173208111  0.3209909886053759   T   T   T
  0.3333333332935382  0.5007383492662725  0.3209909886053759   T   T   T
  0.3333333332935382  0.8333333333256832  0.3213155297788151   T   T   T
  0.6670123007311887  0.1665594249484694  0.3209243646998345   T   T   T
  0.6670123007311887  0.5001072416386141  0.3209243646998345   T   T   T
  0.6666115911599713  0.8333333333256832  0.3209411698776545   T   T   T
  0.1665594249484694 -0.0003456340522817  0.3209243646998345   T   T   T
  0.1659283173208111  0.3333333332935382  0.3209909886053759   T   T   T
  0.1665594249484694  0.6670123007311887  0.3209243646998345   T   T   T
  0.5001072416386141 -0.0003456340522817  0.3209243646998345   T   T   T
  0.5007383492662725  0.3333333332935382  0.3209909886053759   T   T   T
  0.5001072416386141  0.6670123007311887  0.3209243646998345   T   T   T
  0.8333333333256832  0.0000550755189358  0.3209411698776545   T   T   T
  0.8333333333256832  0.3333333332935382  0.3213155297788151   T   T   T
  0.8333333333256832  0.6666115911599713  0.3209411698776545   T   T   T
 -0.0000758685301745 -0.0000758685301745  0.3848367309459812   T   T   T
  0.0012112984358334  0.3333333332935382  0.3854532932642994   T   T   T
 -0.0000758685301745  0.6667425352090814  0.3848367309459812   T   T   T
  0.3333333332935382  0.0012112984358334  0.3854532932642994   T   T   T
  0.3333333332935382  0.3333333332935382  0.3826761736856365   T   T   T
  0.3333333332935382  0.6654553682430734  0.3854532932642994   T   T   T
  0.6667425352090814 -0.0000758685301745  0.3848367309459812   T   T   T
  0.6654553682430734  0.3333333332935382  0.3854532932642994   T   T   T
  0.6667425352090814  0.6667425352090814  0.3848367309459812   T   T   T
  0.1665439862495721  0.1665439862495721  0.3847026583919498   T   T   T
  0.1665439862495721  0.5001226803375115  0.3847026583919498   T   T   T
  0.1669263789587467  0.8333333333256832  0.3848969864587281   T   T   T
  0.5001226803375115  0.1665439862495721  0.3847026583919498   T   T   T
  0.5001226803375115  0.5001226803375115  0.3847026583919498   T   T   T
  0.4997402876283368  0.8333333333256832  0.3848969864587281   T   T   T
  0.8333333333256832  0.1669263789587467  0.3848969864587281   T   T   T
  0.8333333333256832  0.4997402876283368  0.3848969864587281   T   T   T
  0.8333333333256832  0.8333333333256832  0.3847459119477134   T   T   T
  0.0003868849630138  0.1666269100504300  0.4474601155816001   T   T   T
  0.0003868849630138  0.5000397565366537  0.4474601155816001   T   T   T
  0.0001380434849781  0.8333333333256832  0.4473862909868899   T   T   T
  0.3333333332935382  0.1680340405230516  0.4486292141956175   T   T   T
  0.3333333332935382  0.4986326260640319  0.4486292141956175   T   T   T
  0.3333333332935382  0.8333333333256832  0.4476160989859425   T   T   T
  0.6662797817158932  0.1666269100504300  0.4474601155816001   T   T   T
  0.6662797817158932  0.5000397565366537  0.4474601155816001   T   T   T
  0.6665286231939289  0.8333333333256832  0.4473862909868899   T   T   T
  0.1666269100504300  0.0003868849630138  0.4474601155816001   T   T   T
  0.1680340405230516  0.3333333332935382  0.4486292141956175   T   T   T
  0.1666269100504300  0.6662797817158932  0.4474601155816001   T   T   T
  0.5000397565366537  0.0003868849630138  0.4474601155816001   T   T   T
  0.4986326260640319  0.3333333332935382  0.4486292141956175   T   T   T
  0.5000397565366537  0.6662797817158932  0.4474601155816001   T   T   T
  0.8333333333256832  0.0001380434849781  0.4473862909868899   T   T   T
  0.8333333333256832  0.3333333332935382  0.4476160989859425   T   T   T
  0.8333333333256832  0.6665286231939289  0.4473862909868899   T   T   T
  0.3333333332935382  0.3333333332935382  0.4679608512010451   T   T   T
 
  0.00000000E+00  0.00000000E+00  0.00000000E+00
  0.00000000E+00  0.00000000E+00  0.00000000E+00
  0.00000000E+00  0.00000000E+00  0.00000000E+00
  0.00000000E+00  0.00000000E+00  0.00000000E+00
  0.00000000E+00  0.00000000E+00  0.00000000E+00
  0.00000000E+00  0.00000000E+00  0.00000000E+00
  0.00000000E+00  0.00000000E+00  0.00000000E+00
  0.00000000E+00  0.00000000E+00  0.00000000E+00
  0.00000000E+00  0.00000000E+00  0.00000000E+00
  0.00000000E+00  0.00000000E+00  0.00000000E+00
  0.00000000E+00  0.00000000E+00  0.00000000E+00
  0.00000000E+00  0.00000000E+00  0.00000000E+00
  0.00000000E+00  0.00000000E+00  0.00000000E+00
  0.00000000E+00  0.00000000E+00  0.00000000E+00
  0.00000000E+00  0.00000000E+00  0.00000000E+00
  0.00000000E+00  0.00000000E+00  0.00000000E+00
  0.00000000E+00  0.00000000E+00  0.00000000E+00
  0.00000000E+00  0.00000000E+00  0.00000000E+00
  0.00000000E+00  0.00000000E+00  0.00000000E+00
  0.00000000E+00  0.00000000E+00  0.00000000E+00
  0.00000000E+00  0.00000000E+00  0.00000000E+00
  0.00000000E+00  0.00000000E+00  0.00000000E+00
  0.00000000E+00  0.00000000E+00  0.00000000E+00
  0.00000000E+00  0.00000000E+00  0.00000000E+00
  0.00000000E+00  0.00000000E+00  0.00000000E+00
  0.00000000E+00  0.00000000E+00  0.00000000E+00
  0.00000000E+00  0.00000000E+00  0.00000000E+00
  0.00000000E+00  0.00000000E+00  0.00000000E+00
  0.00000000E+00  0.00000000E+00  0.00000000E+00
  0.00000000E+00  0.00000000E+00  0.00000000E+00
  0.00000000E+00  0.00000000E+00  0.00000000E+00
  0.00000000E+00  0.00000000E+00  0.00000000E+00
  0.00000000E+00  0.00000000E+00  0.00000000E+00
  0.00000000E+00  0.00000000E+00  0.00000000E+00
  0.00000000E+00  0.00000000E+00  0.00000000E+00
  0.00000000E+00  0.00000000E+00  0.00000000E+00
  0.00000000E+00  0.00000000E+00  0.00000000E+00
  0.00000000E+00  0.00000000E+00  0.00000000E+00
  0.00000000E+00  0.00000000E+00  0.00000000E+00
  0.00000000E+00  0.00000000E+00  0.00000000E+00
  0.00000000E+00  0.00000000E+00  0.00000000E+00
  0.00000000E+00  0.00000000E+00  0.00000000E+00
  0.00000000E+00  0.00000000E+00  0.00000000E+00
  0.00000000E+00  0.00000000E+00  0.00000000E+00
  0.00000000E+00  0.00000000E+00  0.00000000E+00
  0.00000000E+00  0.00000000E+00  0.00000000E+00
  0.00000000E+00  0.00000000E+00  0.00000000E+00
  0.00000000E+00  0.00000000E+00  0.00000000E+00
  0.00000000E+00  0.00000000E+00  0.00000000E+00
  0.00000000E+00  0.00000000E+00  0.00000000E+00
  0.00000000E+00  0.00000000E+00  0.00000000E+00
  0.00000000E+00  0.00000000E+00  0.00000000E+00
  0.00000000E+00  0.00000000E+00  0.00000000E+00
  0.00000000E+00  0.00000000E+00  0.00000000E+00
  0.00000000E+00  0.00000000E+00  0.00000000E+00
  0.00000000E+00  0.00000000E+00  0.00000000E+00
  0.00000000E+00  0.00000000E+00  0.00000000E+00
  0.00000000E+00  0.00000000E+00  0.00000000E+00
  0.00000000E+00  0.00000000E+00  0.00000000E+00
  0.00000000E+00  0.00000000E+00  0.00000000E+00
  0.00000000E+00  0.00000000E+00  0.00000000E+00
  0.00000000E+00  0.00000000E+00  0.00000000E+00
  0.00000000E+00  0.00000000E+00  0.00000000E+00
  0.00000000E+00  0.00000000E+00  0.00000000E+00
  0.00000000E+00  0.00000000E+00  0.00000000E+00
  0.00000000E+00  0.00000000E+00  0.00000000E+00
  0.00000000E+00  0.00000000E+00  0.00000000E+00
  0.00000000E+00  0.00000000E+00  0.00000000E+00
  0.00000000E+00  0.00000000E+00  0.00000000E+00
  0.00000000E+00  0.00000000E+00  0.00000000E+00
  0.00000000E+00  0.00000000E+00  0.00000000E+00
  0.00000000E+00  0.00000000E+00  0.00000000E+00
  0.00000000E+00  0.00000000E+00  0.00000000E+00
  0.00000000E+00  0.00000000E+00  0.00000000E+00
  0.00000000E+00  0.00000000E+00  0.00000000E+00
  0.00000000E+00  0.00000000E+00  0.00000000E+00
  0.00000000E+00  0.00000000E+00  0.00000000E+00
  0.00000000E+00  0.00000000E+00  0.00000000E+00
  0.00000000E+00  0.00000000E+00  0.00000000E+00
  0.00000000E+00  0.00000000E+00  0.00000000E+00
  0.00000000E+00  0.00000000E+00  0.00000000E+00
  0.00000000E+00  0.00000000E+00  0.00000000E+00
  0.00000000E+00  0.00000000E+00  0.00000000E+00
  0.00000000E+00  0.00000000E+00  0.00000000E+00
  0.00000000E+00  0.00000000E+00  0.00000000E+00
  0.00000000E+00  0.00000000E+00  0.00000000E+00
  0.00000000E+00  0.00000000E+00  0.00000000E+00
  0.00000000E+00  0.00000000E+00  0.00000000E+00
  0.00000000E+00  0.00000000E+00  0.00000000E+00
  0.00000000E+00  0.00000000E+00  0.00000000E+00
  0.00000000E+00  0.00000000E+00  0.00000000E+00
  0.00000000E+00  0.00000000E+00  0.00000000E+00
  0.00000000E+00  0.00000000E+00  0.00000000E+00
  0.00000000E+00  0.00000000E+00  0.00000000E+00
  0.00000000E+00  0.00000000E+00  0.00000000E+00
  0.00000000E+00  0.00000000E+00  0.00000000E+00
  0.00000000E+00  0.00000000E+00  0.00000000E+00
  0.00000000E+00  0.00000000E+00  0.00000000E+00
  0.00000000E+00  0.00000000E+00  0.00000000E+00
  0.00000000E+00  0.00000000E+00  0.00000000E+00
  0.00000000E+00  0.00000000E+00  0.00000000E+00
  0.00000000E+00  0.00000000E+00  0.00000000E+00
  0.00000000E+00  0.00000000E+00  0.00000000E+00
  0.00000000E+00  0.00000000E+00  0.00000000E+00
  0.00000000E+00  0.00000000E+00  0.00000000E+00
  0.00000000E+00  0.00000000E+00  0.00000000E+00
  0.00000000E+00  0.00000000E+00  0.00000000E+00
  0.00000000E+00  0.00000000E+00  0.00000000E+00
  0.00000000E+00  0.00000000E+00  0.00000000E+00
  0.00000000E+00  0.00000000E+00  0.00000000E+00
  0.00000000E+00  0.00000000E+00  0.00000000E+00
  0.00000000E+00  0.00000000E+00  0.00000000E+00
  0.00000000E+00  0.00000000E+00  0.00000000E+00
  0.00000000E+00  0.00000000E+00  0.00000000E+00
  0.00000000E+00  0.00000000E+00  0.00000000E+00
  0.00000000E+00  0.00000000E+00  0.00000000E+00
  0.00000000E+00  0.00000000E+00  0.00000000E+00
  0.00000000E+00  0.00000000E+00  0.00000000E+00
  0.00000000E+00  0.00000000E+00  0.00000000E+00
  0.00000000E+00  0.00000000E+00  0.00000000E+00
  0.00000000E+00  0.00000000E+00  0.00000000E+00
  0.00000000E+00  0.00000000E+00  0.00000000E+00
  0.00000000E+00  0.00000000E+00  0.00000000E+00
  0.00000000E+00  0.00000000E+00  0.00000000E+00
  0.00000000E+00  0.00000000E+00  0.00000000E+00
  0.00000000E+00  0.00000000E+00  0.00000000E+00
  0.00000000E+00  0.00000000E+00  0.00000000E+00
  0.00000000E+00  0.00000000E+00  0.00000000E+00
  0.00000000E+00  0.00000000E+00  0.00000000E+00
  0.00000000E+00  0.00000000E+00  0.00000000E+00
  0.00000000E+00  0.00000000E+00  0.00000000E+00
  0.00000000E+00  0.00000000E+00  0.00000000E+00
  0.00000000E+00  0.00000000E+00  0.00000000E+00
  0.00000000E+00  0.00000000E+00  0.00000000E+00
  0.00000000E+00  0.00000000E+00  0.00000000E+00
  0.00000000E+00  0.00000000E+00  0.00000000E+00
  0.00000000E+00  0.00000000E+00  0.00000000E+00
  0.00000000E+00  0.00000000E+00  0.00000000E+00
  0.00000000E+00  0.00000000E+00  0.00000000E+00
  0.00000000E+00  0.00000000E+00  0.00000000E+00
  0.00000000E+00  0.00000000E+00  0.00000000E+00
  0.00000000E+00  0.00000000E+00  0.00000000E+00
  0.00000000E+00  0.00000000E+00  0.00000000E+00
  0.00000000E+00  0.00000000E+00  0.00000000E+00
  0.00000000E+00  0.00000000E+00  0.00000000E+00
