FCC Cu                                  
   1.00000000000000     
     2.5667977333000001    0.0000000000000000    0.0000000000000000
     1.2833988667000000    2.2229120434000000    0.0000000000000000
     0.0000000000000000    0.0000000000000000   29.6704711914000008
   Cu   H 
     8     2
Direct
 -0.0009797739308114  0.0019595478616227 -0.0001187009733772
  0.3320710925732956  0.3358578151131338  0.0670897317232859
  0.6641560549332104  0.6716878898738474  0.1353093910641370
 -0.0061685623417740  0.0123371246835480  0.2039699948894299
  0.3223405233463909  0.3553189535669430  0.2718669485580814
  0.6495482287550464  0.7009035422301753  0.3404438044163267
 -0.0231173613269452  0.0462347226538905  0.4084812100019888
  0.3037673901310717  0.3924652199975815  0.4758423848782775
  0.3691954494428369  0.2616091013740582  0.5489443851607504
  0.2705359176309132  0.4589281649886542  0.5698758119182339
 
  0.00000000E+00  0.00000000E+00  0.00000000E+00
  0.00000000E+00  0.00000000E+00  0.00000000E+00
  0.00000000E+00  0.00000000E+00  0.00000000E+00
  0.00000000E+00  0.00000000E+00  0.00000000E+00
  0.00000000E+00  0.00000000E+00  0.00000000E+00
  0.00000000E+00  0.00000000E+00  0.00000000E+00
  0.00000000E+00  0.00000000E+00  0.00000000E+00
  0.00000000E+00  0.00000000E+00  0.00000000E+00
  0.00000000E+00  0.00000000E+00  0.00000000E+00
  0.00000000E+00  0.00000000E+00  0.00000000E+00
