FCC Cu                                  
   1.00000000000000     
     7.7003931998999997    0.0000000000000000    0.0000000000000000
     3.8501965999999999    6.6687361303000001    0.0000000000000000
     0.0000000000000000    0.0000000000000000   27.5746898651000016
   Cu
    63
Selective dynamics
Cartesian
0.0 0.0 0.0
1.2833988670000247 2.222912043000021 0.0
10.267190932900002 4.44582408699999 0.0
2.566797733000018 0.0 0.0
3.850196599999988 2.222912043000021 0.0
5.133595466999984 4.44582408699999 0.0
5.133595467 0.0 0.0
6.416994333000006 2.222912043000021 0.0
7.700393200000002 4.44582408699999 0.0
1.283398866999993 0.7409706809999909 2.0957815860000593
2.5667977340000174 2.9638827240000114 2.0957815860000593
3.850196599999996 5.186794767999981 2.0957815860000593
3.8501966000000105 0.7409706809999909 2.0957815860000593
5.133595466999981 2.9638827240000114 2.0957815860000593
6.416994333999977 5.186794767999981 2.0957815860000593
6.416994333999993 0.7409706809999909 2.0957815860000593
7.700393199999999 2.9638827240000114 2.0957815860000593
8.983792066999996 5.186794767999981 2.0957815860000593
2.566797732999967 1.4819413619999817 4.142035448335205
3.850196599999992 3.7048534050000024 4.142035448335205
5.133595465999997 5.927765449000019 4.142035448335205
5.133595465999986 1.4819413619999817 4.142035448335205
6.41699433300001 3.7048534050000024 4.142035448335205
7.700393200000034 5.927765449000019 4.142035448335205
7.700393199999968 1.4819413619999817 4.142035448335205
8.983792066000028 3.7048534050000024 4.142035448335205
10.267190929999996 5.927765449000019 4.142035448335205
0.0 0.0 6.199232790704364
1.2833988670000247 2.222912043000021 6.199232790704364
10.267190932900002 4.44582408699999 6.199232790704364
2.566797733000018 0.0 6.199232790704364
3.850196599999988 2.222912043000021 6.199232790704364
5.133595466999984 4.44582408699999 6.199232790704364
5.133595467 0.0 6.199232790704364
6.416994333000006 2.222912043000021 6.199232790704364
7.700393200000002 4.44582408699999 6.199232790704364
1.283398866999993 0.7409706809999909 8.256780056676858
2.5667977340000174 2.9638827240000114 8.256780056676858
3.850196599999996 5.186794767999981 8.256780056676858
3.8501966000000105 0.7409706809999909 8.256780056676858
5.133595466999981 2.9638827240000114 8.256780056676858
6.416994333999977 5.186794767999981 8.256780056676858
6.416994333999993 0.7409706809999909 8.256780056676858
7.700393199999999 2.9638827240000114 8.256780056676858
8.983792066999996 5.186794767999981 8.256780056676858
2.566797732999967 1.4819413619999817 10.306272167365991
3.850196599999992 3.7048534050000024 10.306272167365991
5.133595465999997 5.927765449000019 10.306272167365991
5.133595465999986 1.4819413619999817 10.306272167365991
6.41699433300001 3.7048534050000024 10.306272167365991
7.700393200000034 5.927765449000019 10.306272167365991
7.700393199999968 1.4819413619999817 10.306272167365991
8.983792066000028 3.7048534050000024 10.306272167365991
10.267190929999996 5.927765449000019 10.306272167365991
0.0 0.0 12.360239316468315
1.2833988670000247 2.222912043000021 12.360239316468315
10.267190932900002 4.44582408699999 12.360239316468315
2.566797733000018 0.0 12.360239316468315
3.850196599999988 2.222912043000021 12.360239316468315
5.133595466999984 4.44582408699999 12.360239316468315
5.133595467 0.0 12.360239316468315
6.416994333000006 2.222912043000021 12.360239316468315
7.700393200000002 4.44582408699999 12.360239316468315
