FCC Cu                                  
   1.00000000000000     
     3.6300001144000000    0.0000000000000000    0.0000000000000000
     0.0000000000000000    3.6300001144000000    0.0000000000000000
     0.0000000000000000    0.0000000000000000   27.7049999237000009
   Cu   H 
    16     2
Direct
  0.0000000000000000 -0.0019442762941460 -0.0014251305035559
  0.4999999999449045  0.4977186825967450 -0.0014197456113606
  0.0000000000000000  0.4978834546919186  0.0617111386465929
  0.4999999999449045 -0.0021531024540988  0.0617102301824663
  0.0000000000000000 -0.0022616528640668  0.1252720681590521
  0.4999999999449045  0.4983659087356233  0.1252652897002812
  0.0000000000000000  0.4982361001346751  0.1884484960579170
  0.4999999999449045 -0.0015662347383834  0.1884498573976776
  0.0000000000000000 -0.0014111112535337  0.2504694648445492
  0.4999999999449045  0.4984555748125089  0.2504898502417711
  0.0000000000000000  0.4989820975232441  0.3135483214607655
  0.4999999999449045 -0.0014471289676214  0.3135407605129888
  0.0000000000000000 -0.0007464606792816  0.3767500096616184
  0.4999999999449045  0.4989798942761309  0.3770121659554197
  0.0000000000000000  0.4996199830887924  0.4396579520931456
  0.4999999999449045 -0.0009006086175877  0.4396750058969066
  0.9999999998898090  0.0666689014983419  0.5264449648896858
  0.9999999998898090  0.1028372346376835  0.5533960790070779
 
  0.00000000E+00  0.00000000E+00  0.00000000E+00
  0.00000000E+00  0.00000000E+00  0.00000000E+00
  0.00000000E+00  0.00000000E+00  0.00000000E+00
  0.00000000E+00  0.00000000E+00  0.00000000E+00
  0.00000000E+00  0.00000000E+00  0.00000000E+00
  0.00000000E+00  0.00000000E+00  0.00000000E+00
  0.00000000E+00  0.00000000E+00  0.00000000E+00
  0.00000000E+00  0.00000000E+00  0.00000000E+00
  0.00000000E+00  0.00000000E+00  0.00000000E+00
  0.00000000E+00  0.00000000E+00  0.00000000E+00
  0.00000000E+00  0.00000000E+00  0.00000000E+00
  0.00000000E+00  0.00000000E+00  0.00000000E+00
  0.00000000E+00  0.00000000E+00  0.00000000E+00
  0.00000000E+00  0.00000000E+00  0.00000000E+00
  0.00000000E+00  0.00000000E+00  0.00000000E+00
  0.00000000E+00  0.00000000E+00  0.00000000E+00
  0.00000000E+00  0.00000000E+00  0.00000000E+00
  0.00000000E+00  0.00000000E+00  0.00000000E+00
