FCC Cu                                  
   1.00000000000000     
     3.6300001144000000    0.0000000000000000    0.0000000000000000
     0.0000000000000000    2.5667977333000001    0.0000000000000000
     0.0000000000000000    0.0000000000000000   20.1335949999999997
   Cu
     5
Selective dynamics
Cartesian
0.0 0.0 0.0
1.8150000570000033 1.283398866999991 1.2833988670000318
0.0 0.0 2.5001914960816256
1.8150000570000033 1.283398866999991 3.848502867181575
0.0 0.0 4.940050630661425
