FCC Cu                                  
   1.00000000000000     
     3.6300001144000000    0.0000000000000000    0.0000000000000000
     0.0000000000000000    2.5667977333000001    0.0000000000000000
     0.0000000000000000    0.0000000000000000   22.7003929999999983
   Cu
     7
Selective dynamics
Direct
  0.0000000000000000  0.0000000000000000  0.0000000000000000   F   F   F
  0.4999999999449045  0.5000000001363532  0.0565364162197568   F   F   F
  0.0000000000000000  0.0000000000000000  0.1101616176938259   T   T   T
  0.4999999999449045  0.5000000001363532  0.1666567087252458   T   T   T
  0.0000000000000000  0.0000000000000000  0.2216359404132094   T   T   T
  0.4999999999449045  0.5000000001363532  0.2793613875016377   T   T   T
  0.0000000000000000  0.0000000000000000  0.3281143423289153   T   T   T
 
  0.00000000E+00  0.00000000E+00  0.00000000E+00
  0.00000000E+00  0.00000000E+00  0.00000000E+00
  0.00000000E+00  0.00000000E+00  0.00000000E+00
  0.00000000E+00  0.00000000E+00  0.00000000E+00
  0.00000000E+00  0.00000000E+00  0.00000000E+00
  0.00000000E+00  0.00000000E+00  0.00000000E+00
  0.00000000E+00  0.00000000E+00  0.00000000E+00
