FCC Cu                                  
1.0
        3.6300001144         0.0000000000         0.0000000000
        0.0000000000         2.5667977333         0.0000000000
        0.0000000000         0.0000000000        22.7003936768
   Cu
    7
Cartesian
     0.000000000         0.000000000         0.000000000
     1.815000057         1.283398867         1.283398905
     0.000000000         0.000000000         2.500712090
     1.815000057         1.283398867         3.783172897
     0.000000000         0.000000000         5.031223100
     1.815000057         1.283398867         6.341613474
     0.000000000         0.000000000         7.448324742
