FCC Cu
1.00000000000000
10.8900003433000006    0.0000000000000000    0.0000000000000000
0.0000000000000000    7.7003931998999997    0.0000000000000000
0.0000000000000000    0.0000000000000000   23.9837913512999990
Cu H
72 1
Selective dynamics
Cartesian
0.0     0.0     0.0     F     F     F
0.0     2.566797733000018     0.0     F     F     F
0.0     5.133595467     0.0     F     F     F
3.6300001139999645     0.0     0.0     F     F     F
3.6300001139999645     2.566797733000018     0.0     F     F     F
3.6300001139999645     5.133595467     0.0     F     F     F
7.260000228999964     0.0     0.0     F     F     F
7.260000228999964     2.566797733000018     0.0     F     F     F
7.260000228999964     5.133595467     0.0     F     F     F
1.8150000569999822     1.2833988669999907     1.1957086047289385     F     F     F
1.8150000569999822     3.850196600000009     1.1957086047289385     F     F     F
1.8150000569999822     6.416994333999991     1.1957086047289385     F     F     F
5.445000171000024     1.2833988669999907     1.1957086047289385     F     F     F
5.445000171000024     3.850196600000009     1.1957086047289385     F     F     F
5.445000171000024     6.416994333999991     1.1957086047289385     F     F     F
9.075000286000023     1.2833988669999907     1.1957086047289385     F     F     F
9.075000286000023     3.850196600000009     1.1957086047289385     F     F     F
9.075000286000023     6.416994333999991     1.1957086047289385     F     F     F
0.0     0.0     2.566797655999925     F     F     F
0.0     2.566797733000018     2.566797655999925     F     F     F
0.0     5.133595467     2.566797655999925     F     F     F
3.6300001139999645     0.0     2.566797655999925     F     F     F
3.6300001139999645     2.566797733000018     2.566797655999925     F     F     F
3.6300001139999645     5.133595467     2.566797655999925     F     F     F
7.260000228999964     0.0     2.566797655999925     F     F     F
7.260000228999964     2.566797733000018     2.566797655999925     F     F     F
7.260000228999964     5.133595467     2.566797655999925     F     F     F
1.8150000569999822     1.2833988669999907     3.76737488191706     T     T     T
1.8150000569999822     3.850196600000009     3.76737488191706     T     T     T
1.8150000569999822     6.416994333999991     3.76737488191706     T     T     T
5.445000171000024     1.2833988669999907     3.76737488191706     T     T     T
5.445000171000024     3.850196600000009     3.76737488191706     T     T     T
5.445000171000024     6.416994333999991     3.76737488191706     T     T     T
9.075000286000023     1.2833988669999907     3.76737488191706     T     T     T
9.075000286000023     3.850196600000009     3.76737488191706     T     T     T
9.075000286000023     6.416994333999991     3.76737488191706     T     T     T
-0.0     -0.0     5.05271567119793     T     T     T
-0.0     2.566797733000018     5.05271567119793     T     T     T
0.0     5.133595467     5.05271567119793     T     T     T
3.6300001139999645     -0.0     5.05271567119793     T     T     T
3.6300001139999645     2.566797733000018     5.05271567119793     T     T     T
3.6300001139999645     5.133595467     5.05271567119793     T     T     T
7.260000228999964     -0.0     5.05271567119793     T     T     T
7.260000228999964     2.566797733000018     5.05271567119793     T     T     T
7.260000228999964     5.133595467     5.05271567119793     T     T     T
1.8150000569999822     1.2833988669999907     6.275453811629177     T     T     T
1.8150000569999822     3.850196600000009     6.275453811629177     T     T     T
1.8150000569999822     6.416994333999991     6.275453811629177     T     T     T
5.445000171000024     1.2833988669999907     6.275453811629177     T     T     T
5.445000171000024     3.850196600000009     6.275453811629177     T     T     T
5.445000171000024     6.416994333999991     6.275453811629177     T     T     T
9.075000286000023     1.2833988669999907     6.275453811629177     T     T     T
9.075000286000023     3.850196600000009     6.275453811629177     T     T     T
9.075000286000023     6.416994333999991     6.275453811629177     T     T     T
0.0     -0.0     7.595842895174892     T     T     T
0.0     2.566797733000018     7.595842895174892     T     T     T
0.0     5.133595467     7.595842895174892     T     T     T
3.6300001139999645     -0.0     7.595842895174892     T     T     T
3.6300001139999645     2.566797733000018     7.595842895174892     T     T     T
3.6300001139999645     5.133595467     7.595842895174892     T     T     T
7.260000228999964     -0.0     7.595842895174892     T     T     T
7.260000228999964     2.566797733000018     7.595842895174892     T     T     T
7.260000228999964     5.133595467     7.595842895174892     T     T     T
1.8150000569999822     1.2833988669999907     8.73887049126061     T     T     T
1.8150000569999822     3.850196600000009     8.73887049126061     T     T     T
1.8150000569999822     6.416994333999991     8.73887049126061     T     T     T
5.445000171000024     1.2833988669999907     8.73887049126061     T     T     T
5.445000171000024     3.850196600000009     8.73887049126061     T     T     T
5.445000171000024     6.416994333999991     8.73887049126061     T     T     T
9.075000286000023     1.2833988669999907     8.73887049126061     T     T     T
9.075000286000023     3.850196600000009     8.73887049126061     T     T     T
9.075000286000023     6.416994333999991     8.73887049126061     T     T     T
5.445000171000024 3.850196600000009 10.23887049126061    T   T   T
