FCC Cu                                  
   1.00000000000000     
    10.8900003433000006    0.0000000000000000    0.0000000000000000
     0.0000000000000000   10.8900003433000006    0.0000000000000000
     0.0000000000000000    0.0000000000000000   27.7049999237000009
   Cu   H 
   144     2
Selective dynamics
Direct
  0.0000000000000000  0.0000000000000000  0.0000000000000000   F   F   F
  0.0000000000000000  0.3333333332935382  0.0000000000000000   F   F   F
  0.0000000000000000  0.6666666666789069  0.0000000000000000   F   F   F
  0.3333333332935382  0.0000000000000000  0.0000000000000000   F   F   F
  0.3333333332935382  0.3333333332935382  0.0000000000000000   F   F   F
  0.3333333332935382  0.6666666666789069  0.0000000000000000   F   F   F
  0.6666666666789069  0.0000000000000000  0.0000000000000000   F   F   F
  0.6666666666789069  0.3333333332935382  0.0000000000000000   F   F   F
  0.6666666666789069  0.6666666666789069  0.0000000000000000   F   F   F
  0.1666666666467691  0.1666666666467691  0.0000000000000000   F   F   F
  0.1666666666467691  0.4999999999403144  0.0000000000000000   F   F   F
  0.1666666666467691  0.8333333333256832  0.0000000000000000   F   F   F
  0.4999999999403144  0.1666666666467691  0.0000000000000000   F   F   F
  0.4999999999403144  0.4999999999403144  0.0000000000000000   F   F   F
  0.4999999999403144  0.8333333333256832  0.0000000000000000   F   F   F
  0.8333333333256832  0.1666666666467691  0.0000000000000000   F   F   F
  0.8333333333256832  0.4999999999403144  0.0000000000000000   F   F   F
  0.8333333333256832  0.8333333333256832  0.0000000000000000   F   F   F
  0.0000000000000000  0.1666666666467691  0.0655116416169861   F   F   F
  0.0000000000000000  0.4999999999403144  0.0655116416169861   F   F   F
  0.0000000000000000  0.8333333333256832  0.0655116416169861   F   F   F
  0.3333333332935382  0.1666666666467691  0.0655116416169861   F   F   F
  0.3333333332935382  0.4999999999403144  0.0655116416169861   F   F   F
  0.3333333332935382  0.8333333333256832  0.0655116416169861   F   F   F
  0.6666666666789069  0.1666666666467691  0.0655116416169861   F   F   F
  0.6666666666789069  0.4999999999403144  0.0655116416169861   F   F   F
  0.6666666666789069  0.8333333333256832  0.0655116416169861   F   F   F
  0.1666666666467691  0.0000000000000000  0.0655116416169861   F   F   F
  0.1666666666467691  0.3333333332935382  0.0655116416169861   F   F   F
  0.1666666666467691  0.6666666666789069  0.0655116416169861   F   F   F
  0.4999999999403144  0.0000000000000000  0.0655116416169861   F   F   F
  0.4999999999403144  0.3333333332935382  0.0655116416169861   F   F   F
  0.4999999999403144  0.6666666666789069  0.0655116416169861   F   F   F
  0.8333333333256832  0.0000000000000000  0.0655116416169861   F   F   F
  0.8333333333256832  0.3333333332935382  0.0655116416169861   F   F   F
  0.8333333333256832  0.6666666666789069  0.0655116416169861   F   F   F
  0.0000000000000000  0.0000000000000000  0.1311955341119244   F   F   F
  0.0000000000000000  0.3333333332935382  0.1311955341119244   F   F   F
  0.0000000000000000  0.6666666666789069  0.1311955341119244   F   F   F
  0.3333333332935382  0.0000000000000000  0.1311955341119244   F   F   F
  0.3333333332935382  0.3333333332935382  0.1311955341119244   F   F   F
  0.3333333332935382  0.6666666666789069  0.1311955341119244   F   F   F
  0.6666666666789069  0.0000000000000000  0.1311955341119244   F   F   F
  0.6666666666789069  0.3333333332935382  0.1311955341119244   F   F   F
  0.6666666666789069  0.6666666666789069  0.1311955341119244   F   F   F
  0.1666666666467691  0.1666666666467691  0.1311955341119244   F   F   F
  0.1666666666467691  0.4999999999403144  0.1311955341119244   F   F   F
  0.1666666666467691  0.8333333333256832  0.1311955341119244   F   F   F
  0.4999999999403144  0.1666666666467691  0.1311955341119244   F   F   F
  0.4999999999403144  0.4999999999403144  0.1311955341119244   F   F   F
  0.4999999999403144  0.8333333333256832  0.1311955341119244   F   F   F
  0.8333333333256832  0.1666666666467691  0.1311955341119244   F   F   F
  0.8333333333256832  0.4999999999403144  0.1311955341119244   F   F   F
  0.8333333333256832  0.8333333333256832  0.1311955341119244   F   F   F
 -0.0000538783311209  0.1666127883156482  0.1941608130886106   T   T   T
 -0.0000427665356438  0.4999999999403144  0.1942718302880450   T   T   T
 -0.0000538783311209  0.8333872116568035  0.1941608130886106   T   T   T
  0.3333333332935382  0.1666239001111254  0.1942718302880450   T   T   T
  0.3333333332935382  0.4999999999403144  0.1941767844146322   T   T   T
  0.3333333332935382  0.8333760998613272  0.1942718302880450   T   T   T
  0.6667205450100273  0.1666127883156482  0.1941608130886106   T   T   T
  0.6667094332145510  0.4999999999403144  0.1942718302880450   T   T   T
  0.6667205450100273  0.8333872116568035  0.1941608130886106   T   T   T
  0.1667282286867053 -0.0000000000000000  0.1941575800715913   T   T   T
  0.1665976058637564  0.3332642725105255  0.1942784920292116   T   T   T
  0.1665976058637564  0.6667357274619199  0.1942784920292116   T   T   T
  0.4999384379003783 -0.0000000000000000  0.1941575800715913   T   T   T
  0.5000690607233277  0.3332642725105255  0.1942784920292116   T   T   T
  0.5000690607233277  0.6667357274619199  0.1942784920292116   T   T   T
  0.8333333333256832 -0.0000000000000000  0.1941524019065269   T   T   T
  0.8333333333256832  0.3333948953334744  0.1941575800715913   T   T   T
  0.8333333333256832  0.6666051046389709  0.1941575800715913   T   T   T
 -0.0000159739833404 -0.0000000000000000  0.2571070240820726   T   T   T
 -0.0001092947538791  0.3332886620109619  0.2571110212477609   T   T   T
 -0.0001092947538791  0.6667113379614831  0.2571110212477609   T   T   T
  0.3333333332935382 -0.0000000000000000  0.2571716211745321   T   T   T
  0.3333333332935382  0.3333527136471162  0.2571086183732387   T   T   T
  0.3333333332935382  0.6666472863253289  0.2571086183732387   T   T   T
  0.6666826406622474 -0.0000000000000000  0.2571070240820726   T   T   T
  0.6667759614327864  0.3332886620109619  0.2571110212477609   T   T   T
  0.6667759614327864  0.6667113379614831  0.2571110212477609   T   T   T
  0.1666219953641929  0.1665573718928900  0.2571110212477609   T   T   T
  0.1666860470003468  0.4999999999403144  0.2571086183732387   T   T   T
  0.1666219953641929  0.8334426280795626  0.2571110212477609   T   T   T
  0.5000446712228908  0.1665573718928900  0.2571110212477609   T   T   T
  0.4999806195867366  0.4999999999403144  0.2571086183732387   T   T   T
  0.5000446712228908  0.8334426280795626  0.2571110212477609   T   T   T
  0.8333333333256832  0.1666506926634287  0.2571070240820726   T   T   T
  0.8333333333256832  0.4999999999403144  0.2571716211745321   T   T   T
  0.8333333333256832  0.8333493073090236  0.2571070240820726   T   T   T
  0.0000243846573567  0.1666910513041256  0.3200748948640780   T   T   T
  0.0000766931259409  0.4999999999403144  0.3200436032496501   T   T   T
  0.0000243846573567  0.8333089486683265  0.3200748948640780   T   T   T
  0.3333333332935382  0.1667433597727100  0.3200436032496501   T   T   T
  0.3333333332935382  0.4999999999403144  0.3199345878070525   T   T   T
  0.3333333332935382  0.8332566401997423  0.3200436032496501   T   T   T
  0.6666422820215503  0.1666910513041256  0.3200748948640780   T   T   T
  0.6665899735529661  0.4999999999403144  0.3200436032496501   T   T   T
  0.6666422820215503  0.8333089486683265  0.3200748948640780   T   T   T
  0.1666228475441150 -0.0000000000000000  0.3200707835011509   T   T   T
  0.1665974911525465  0.3332641577993153  0.3199739050026762   T   T   T
  0.1665974911525465  0.6667358421731293  0.3199739050026762   T   T   T
  0.5000438190429684 -0.0000000000000000  0.3200707835011509   T   T   T
  0.5000691754345369  0.3332641577993153  0.3199739050026762   T   T   T
  0.5000691754345369  0.6667358421731293  0.3199739050026762   T   T   T
  0.8333333333256832 -0.0000000000000000  0.3201013650591060   T   T   T
  0.8333333333256832  0.3332895141908844  0.3200707835011509   T   T   T
  0.8333333333256832  0.6667104857815611  0.3200707835011509   T   T   T
 -0.0001071998092705 -0.0000000000000000  0.3838212500948412   T   T   T
 -0.0000085998075525  0.3333089409470187  0.3837430583608282   T   T   T
 -0.0000085998075525  0.6666910590254262  0.3837430583608282   T   T   T
  0.3333333332935382 -0.0000000000000000  0.3836710737624198   T   T   T
  0.3333333332935382  0.3333336819281930  0.3836313787171503   T   T   T
  0.3333333332935382  0.6666663180442521  0.3836313787171503   T   T   T
  0.6667738664881773 -0.0000000000000000  0.3838212500948412   T   T   T
  0.6666752664864593  0.3333089409470187  0.3837430583608282   T   T   T
  0.6666752664864593  0.6666910590254262  0.3837430583608282   T   T   T
  0.1666422743002498  0.1666580668392165  0.3837430583608282   T   T   T
  0.1666670152814238  0.4999999999403144  0.3836313787171503   T   T   T
  0.1666422743002498  0.8333419331332355  0.3837430583608282   T   T   T
  0.5000243922868340  0.1666580668392165  0.3837430583608282   T   T   T
  0.4999996513056599  0.4999999999403144  0.3836313787171503   T   T   T
  0.5000243922868340  0.8333419331332355  0.3837430583608282   T   T   T
  0.8333333333256832  0.1665594668374985  0.3838212500948412   T   T   T
  0.8333333333256832  0.4999999999403144  0.3836710737624198   T   T   T
  0.8333333333256832  0.8334405331349535  0.3838212500948412   T   T   T
  0.0000263440785919  0.1666930107253609  0.4464949027330776   T   T   T
  0.0000638691054692  0.4999999999403144  0.4463477451026860   T   T   T
  0.0000263440785919  0.8333069892470913  0.4464949027330776   T   T   T
  0.3333333332935382  0.1667305357522383  0.4463477451026860   T   T   T
  0.3333333332935382  0.4999999999403144  0.4460416054029666   T   T   T
  0.3333333332935382  0.8332694642202143  0.4463477451026860   T   T   T
  0.6666403226003151  0.1666930107253609  0.4464949027330776   T   T   T
  0.6666027975734381  0.4999999999403144  0.4463477451026860   T   T   T
  0.6666403226003151  0.8333069892470913  0.4464949027330776   T   T   T
  0.1667377381744024 -0.0000000000000000  0.4463352352664891   T   T   T
  0.1665883355464955  0.3332550021932648  0.4462981988069757   T   T   T
  0.1665883355464955  0.6667449977791807  0.4462981988069757   T   T   T
  0.4999289284126812 -0.0000000000000000  0.4463352352664891   T   T   T
  0.5000783310405880  0.3332550021932648  0.4462981988069757   T   T   T
  0.5000783310405880  0.6667449977791807  0.4462981988069757   T   T   T
  0.8333333333256832 -0.0000000000000000  0.4465612346621075   T   T   T
  0.8333333333256832  0.3334044048211713  0.4463352352664891   T   T   T
  0.8333333333256832  0.6665955951512740  0.4463352352664891   T   T   T
  0.3333333332935382  0.4999999999403144  0.5308708344159672   T   T   T
  0.3333333332935382  0.4999999999403144  0.5582770649601926   T   T   T
 
  0.00000000E+00  0.00000000E+00  0.00000000E+00
  0.00000000E+00  0.00000000E+00  0.00000000E+00
  0.00000000E+00  0.00000000E+00  0.00000000E+00
  0.00000000E+00  0.00000000E+00  0.00000000E+00
  0.00000000E+00  0.00000000E+00  0.00000000E+00
  0.00000000E+00  0.00000000E+00  0.00000000E+00
  0.00000000E+00  0.00000000E+00  0.00000000E+00
  0.00000000E+00  0.00000000E+00  0.00000000E+00
  0.00000000E+00  0.00000000E+00  0.00000000E+00
  0.00000000E+00  0.00000000E+00  0.00000000E+00
  0.00000000E+00  0.00000000E+00  0.00000000E+00
  0.00000000E+00  0.00000000E+00  0.00000000E+00
  0.00000000E+00  0.00000000E+00  0.00000000E+00
  0.00000000E+00  0.00000000E+00  0.00000000E+00
  0.00000000E+00  0.00000000E+00  0.00000000E+00
  0.00000000E+00  0.00000000E+00  0.00000000E+00
  0.00000000E+00  0.00000000E+00  0.00000000E+00
  0.00000000E+00  0.00000000E+00  0.00000000E+00
  0.00000000E+00  0.00000000E+00  0.00000000E+00
  0.00000000E+00  0.00000000E+00  0.00000000E+00
  0.00000000E+00  0.00000000E+00  0.00000000E+00
  0.00000000E+00  0.00000000E+00  0.00000000E+00
  0.00000000E+00  0.00000000E+00  0.00000000E+00
  0.00000000E+00  0.00000000E+00  0.00000000E+00
  0.00000000E+00  0.00000000E+00  0.00000000E+00
  0.00000000E+00  0.00000000E+00  0.00000000E+00
  0.00000000E+00  0.00000000E+00  0.00000000E+00
  0.00000000E+00  0.00000000E+00  0.00000000E+00
  0.00000000E+00  0.00000000E+00  0.00000000E+00
  0.00000000E+00  0.00000000E+00  0.00000000E+00
  0.00000000E+00  0.00000000E+00  0.00000000E+00
  0.00000000E+00  0.00000000E+00  0.00000000E+00
  0.00000000E+00  0.00000000E+00  0.00000000E+00
  0.00000000E+00  0.00000000E+00  0.00000000E+00
  0.00000000E+00  0.00000000E+00  0.00000000E+00
  0.00000000E+00  0.00000000E+00  0.00000000E+00
  0.00000000E+00  0.00000000E+00  0.00000000E+00
  0.00000000E+00  0.00000000E+00  0.00000000E+00
  0.00000000E+00  0.00000000E+00  0.00000000E+00
  0.00000000E+00  0.00000000E+00  0.00000000E+00
  0.00000000E+00  0.00000000E+00  0.00000000E+00
  0.00000000E+00  0.00000000E+00  0.00000000E+00
  0.00000000E+00  0.00000000E+00  0.00000000E+00
  0.00000000E+00  0.00000000E+00  0.00000000E+00
  0.00000000E+00  0.00000000E+00  0.00000000E+00
  0.00000000E+00  0.00000000E+00  0.00000000E+00
  0.00000000E+00  0.00000000E+00  0.00000000E+00
  0.00000000E+00  0.00000000E+00  0.00000000E+00
  0.00000000E+00  0.00000000E+00  0.00000000E+00
  0.00000000E+00  0.00000000E+00  0.00000000E+00
  0.00000000E+00  0.00000000E+00  0.00000000E+00
  0.00000000E+00  0.00000000E+00  0.00000000E+00
  0.00000000E+00  0.00000000E+00  0.00000000E+00
  0.00000000E+00  0.00000000E+00  0.00000000E+00
  0.00000000E+00  0.00000000E+00  0.00000000E+00
  0.00000000E+00  0.00000000E+00  0.00000000E+00
  0.00000000E+00  0.00000000E+00  0.00000000E+00
  0.00000000E+00  0.00000000E+00  0.00000000E+00
  0.00000000E+00  0.00000000E+00  0.00000000E+00
  0.00000000E+00  0.00000000E+00  0.00000000E+00
  0.00000000E+00  0.00000000E+00  0.00000000E+00
  0.00000000E+00  0.00000000E+00  0.00000000E+00
  0.00000000E+00  0.00000000E+00  0.00000000E+00
  0.00000000E+00  0.00000000E+00  0.00000000E+00
  0.00000000E+00  0.00000000E+00  0.00000000E+00
  0.00000000E+00  0.00000000E+00  0.00000000E+00
  0.00000000E+00  0.00000000E+00  0.00000000E+00
  0.00000000E+00  0.00000000E+00  0.00000000E+00
  0.00000000E+00  0.00000000E+00  0.00000000E+00
  0.00000000E+00  0.00000000E+00  0.00000000E+00
  0.00000000E+00  0.00000000E+00  0.00000000E+00
  0.00000000E+00  0.00000000E+00  0.00000000E+00
  0.00000000E+00  0.00000000E+00  0.00000000E+00
  0.00000000E+00  0.00000000E+00  0.00000000E+00
  0.00000000E+00  0.00000000E+00  0.00000000E+00
  0.00000000E+00  0.00000000E+00  0.00000000E+00
  0.00000000E+00  0.00000000E+00  0.00000000E+00
  0.00000000E+00  0.00000000E+00  0.00000000E+00
  0.00000000E+00  0.00000000E+00  0.00000000E+00
  0.00000000E+00  0.00000000E+00  0.00000000E+00
  0.00000000E+00  0.00000000E+00  0.00000000E+00
  0.00000000E+00  0.00000000E+00  0.00000000E+00
  0.00000000E+00  0.00000000E+00  0.00000000E+00
  0.00000000E+00  0.00000000E+00  0.00000000E+00
  0.00000000E+00  0.00000000E+00  0.00000000E+00
  0.00000000E+00  0.00000000E+00  0.00000000E+00
  0.00000000E+00  0.00000000E+00  0.00000000E+00
  0.00000000E+00  0.00000000E+00  0.00000000E+00
  0.00000000E+00  0.00000000E+00  0.00000000E+00
  0.00000000E+00  0.00000000E+00  0.00000000E+00
  0.00000000E+00  0.00000000E+00  0.00000000E+00
  0.00000000E+00  0.00000000E+00  0.00000000E+00
  0.00000000E+00  0.00000000E+00  0.00000000E+00
  0.00000000E+00  0.00000000E+00  0.00000000E+00
  0.00000000E+00  0.00000000E+00  0.00000000E+00
  0.00000000E+00  0.00000000E+00  0.00000000E+00
  0.00000000E+00  0.00000000E+00  0.00000000E+00
  0.00000000E+00  0.00000000E+00  0.00000000E+00
  0.00000000E+00  0.00000000E+00  0.00000000E+00
  0.00000000E+00  0.00000000E+00  0.00000000E+00
  0.00000000E+00  0.00000000E+00  0.00000000E+00
  0.00000000E+00  0.00000000E+00  0.00000000E+00
  0.00000000E+00  0.00000000E+00  0.00000000E+00
  0.00000000E+00  0.00000000E+00  0.00000000E+00
  0.00000000E+00  0.00000000E+00  0.00000000E+00
  0.00000000E+00  0.00000000E+00  0.00000000E+00
  0.00000000E+00  0.00000000E+00  0.00000000E+00
  0.00000000E+00  0.00000000E+00  0.00000000E+00
  0.00000000E+00  0.00000000E+00  0.00000000E+00
  0.00000000E+00  0.00000000E+00  0.00000000E+00
  0.00000000E+00  0.00000000E+00  0.00000000E+00
  0.00000000E+00  0.00000000E+00  0.00000000E+00
  0.00000000E+00  0.00000000E+00  0.00000000E+00
  0.00000000E+00  0.00000000E+00  0.00000000E+00
  0.00000000E+00  0.00000000E+00  0.00000000E+00
  0.00000000E+00  0.00000000E+00  0.00000000E+00
  0.00000000E+00  0.00000000E+00  0.00000000E+00
  0.00000000E+00  0.00000000E+00  0.00000000E+00
  0.00000000E+00  0.00000000E+00  0.00000000E+00
  0.00000000E+00  0.00000000E+00  0.00000000E+00
  0.00000000E+00  0.00000000E+00  0.00000000E+00
  0.00000000E+00  0.00000000E+00  0.00000000E+00
  0.00000000E+00  0.00000000E+00  0.00000000E+00
  0.00000000E+00  0.00000000E+00  0.00000000E+00
  0.00000000E+00  0.00000000E+00  0.00000000E+00
  0.00000000E+00  0.00000000E+00  0.00000000E+00
  0.00000000E+00  0.00000000E+00  0.00000000E+00
  0.00000000E+00  0.00000000E+00  0.00000000E+00
  0.00000000E+00  0.00000000E+00  0.00000000E+00
  0.00000000E+00  0.00000000E+00  0.00000000E+00
  0.00000000E+00  0.00000000E+00  0.00000000E+00
  0.00000000E+00  0.00000000E+00  0.00000000E+00
  0.00000000E+00  0.00000000E+00  0.00000000E+00
  0.00000000E+00  0.00000000E+00  0.00000000E+00
  0.00000000E+00  0.00000000E+00  0.00000000E+00
  0.00000000E+00  0.00000000E+00  0.00000000E+00
  0.00000000E+00  0.00000000E+00  0.00000000E+00
  0.00000000E+00  0.00000000E+00  0.00000000E+00
  0.00000000E+00  0.00000000E+00  0.00000000E+00
  0.00000000E+00  0.00000000E+00  0.00000000E+00
  0.00000000E+00  0.00000000E+00  0.00000000E+00
  0.00000000E+00  0.00000000E+00  0.00000000E+00
  0.00000000E+00  0.00000000E+00  0.00000000E+00
  0.00000000E+00  0.00000000E+00  0.00000000E+00
  0.00000000E+00  0.00000000E+00  0.00000000E+00
  0.00000000E+00  0.00000000E+00  0.00000000E+00
