FCC Cu                                  
   1.00000000000000     
     7.2600002289000001    0.0000000000000000    0.0000000000000000
     0.0000000000000000    7.2600002289000001    0.0000000000000000
     0.0000000000000000    0.0000000000000000   27.7049999237000009
   Cu
    64
Selective dynamics
Direct
  0.0000000000000000  0.0000000000000000  0.0000000000000000   F   F   F
  0.0000000000000000  0.4999999999380194  0.0000000000000000   F   F   F
  0.4999999999380194  0.0000000000000000  0.0000000000000000   F   F   F
  0.4999999999380194  0.4999999999380194  0.0000000000000000   F   F   F
  0.2499999999690061  0.2499999999690061  0.0000000000000000   F   F   F
  0.2499999999690061  0.7499999999070255  0.0000000000000000   F   F   F
  0.7499999999070255  0.2499999999690061  0.0000000000000000   F   F   F
  0.7499999999070255  0.7499999999070255  0.0000000000000000   F   F   F
  0.0000000000000000  0.2499999999690061  0.0655116416169861   F   F   F
  0.0000000000000000  0.7499999999070255  0.0655116416169861   F   F   F
  0.4999999999380194  0.2499999999690061  0.0655116416169861   F   F   F
  0.4999999999380194  0.7499999999070255  0.0655116416169861   F   F   F
  0.2499999999690061  0.0000000000000000  0.0655116416169861   F   F   F
  0.2499999999690061  0.4999999999380194  0.0655116416169861   F   F   F
  0.7499999999070255  0.0000000000000000  0.0655116416169861   F   F   F
  0.7499999999070255  0.4999999999380194  0.0655116416169861   F   F   F
  0.0000000000000000 -0.0000000000000000  0.1316412815248670   T   T   T
  0.0000000000000000  0.4999999999380194  0.1316412815248670   T   T   T
  0.4999999999380194  0.0000000000000000  0.1316412815248670   T   T   T
  0.4999999999380194  0.4999999999380194  0.1316412815248670   T   T   T
  0.2499999999690061  0.2499999999690061  0.1316412815248670   T   T   T
  0.2499999999690061  0.7499999999070255  0.1316412815248670   T   T   T
  0.7499999999070255  0.2499999999690061  0.1316412815248670   T   T   T
  0.7499999999070255  0.7499999999070255  0.1316412815248670   T   T   T
  0.0000000000000000  0.2499999999690061  0.1967789144022964   T   T   T
  0.0000000000000000  0.7499999999070255  0.1967789144022964   T   T   T
  0.4999999999380194  0.2499999999690061  0.1967789144022964   T   T   T
  0.4999999999380194  0.7499999999070255  0.1967789144022964   T   T   T
  0.2499999999690061 -0.0000000000000000  0.1967789144022964   T   T   T
  0.2499999999690061  0.4999999999380194  0.1967789144022964   T   T   T
  0.7499999999070255 -0.0000000000000000  0.1967789144022964   T   T   T
  0.7499999999070255  0.4999999999380194  0.1967789144022964   T   T   T
 -0.0000000000000000  0.0000000000000000  0.2618466247597804   T   T   T
  0.0000000000000000  0.4999999999380194  0.2618466247597804   T   T   T
  0.4999999999380194  0.0000000000000000  0.2618466247597804   T   T   T
  0.4999999999380194  0.4999999999380194  0.2618466247597804   T   T   T
  0.2499999999690061  0.2499999999690061  0.2618466247597804   T   T   T
  0.2499999999690061  0.7499999999070255  0.2618466247597804   T   T   T
  0.7499999999070255  0.2499999999690061  0.2618466247597804   T   T   T
  0.7499999999070255  0.7499999999070255  0.2618466247597804   T   T   T
  0.0000000000000000  0.2499999999690061  0.3275888707147049   T   T   T
  0.0000000000000000  0.7499999999070255  0.3275888707147049   T   T   T
  0.4999999999380194  0.2499999999690061  0.3275888707147049   T   T   T
  0.4999999999380194  0.7499999999070255  0.3275888707147049   T   T   T
  0.2499999999690061  0.0000000000000000  0.3275888707147049   T   T   T
  0.2499999999690061  0.4999999999380194  0.3275888707147049   T   T   T
  0.7499999999070255 -0.0000000000000000  0.3275888707147049   T   T   T
  0.7499999999070255  0.4999999999380194  0.3275888707147049   T   T   T
 -0.0000000000000000  0.0000000000000000  0.3918576257407919   T   T   T
 -0.0000000000000000  0.4999999999380194  0.3918576257407919   T   T   T
  0.4999999999380194  0.0000000000000000  0.3918576257407919   T   T   T
  0.4999999999380194  0.4999999999380194  0.3918576257407919   T   T   T
  0.2499999999690061  0.2499999999690061  0.3918576257407919   T   T   T
  0.2499999999690061  0.7499999999070255  0.3918576257407919   T   T   T
  0.7499999999070255  0.2499999999690061  0.3918576257407919   T   T   T
  0.7499999999070255  0.7499999999070255  0.3918576257407919   T   T   T
 -0.0000000000000000  0.2499999999690061  0.4547548957940896   T   T   T
 -0.0000000000000000  0.7499999999070255  0.4547548957940896   T   T   T
  0.4999999999380194  0.2499999999690061  0.4547548957940896   T   T   T
  0.4999999999380194  0.7499999999070255  0.4547548957940896   T   T   T
  0.2499999999690061 -0.0000000000000000  0.4547548957940896   T   T   T
  0.2499999999690061  0.4999999999380194  0.4547548957940896   T   T   T
  0.7499999999070255 -0.0000000000000000  0.4547548957940896   T   T   T
  0.7499999999070255  0.4999999999380194  0.4547548957940896   T   T   T
 
  0.00000000E+00  0.00000000E+00  0.00000000E+00
  0.00000000E+00  0.00000000E+00  0.00000000E+00
  0.00000000E+00  0.00000000E+00  0.00000000E+00
  0.00000000E+00  0.00000000E+00  0.00000000E+00
  0.00000000E+00  0.00000000E+00  0.00000000E+00
  0.00000000E+00  0.00000000E+00  0.00000000E+00
  0.00000000E+00  0.00000000E+00  0.00000000E+00
  0.00000000E+00  0.00000000E+00  0.00000000E+00
  0.00000000E+00  0.00000000E+00  0.00000000E+00
  0.00000000E+00  0.00000000E+00  0.00000000E+00
  0.00000000E+00  0.00000000E+00  0.00000000E+00
  0.00000000E+00  0.00000000E+00  0.00000000E+00
  0.00000000E+00  0.00000000E+00  0.00000000E+00
  0.00000000E+00  0.00000000E+00  0.00000000E+00
  0.00000000E+00  0.00000000E+00  0.00000000E+00
  0.00000000E+00  0.00000000E+00  0.00000000E+00
  0.00000000E+00  0.00000000E+00  0.00000000E+00
  0.00000000E+00  0.00000000E+00  0.00000000E+00
  0.00000000E+00  0.00000000E+00  0.00000000E+00
  0.00000000E+00  0.00000000E+00  0.00000000E+00
  0.00000000E+00  0.00000000E+00  0.00000000E+00
  0.00000000E+00  0.00000000E+00  0.00000000E+00
  0.00000000E+00  0.00000000E+00  0.00000000E+00
  0.00000000E+00  0.00000000E+00  0.00000000E+00
  0.00000000E+00  0.00000000E+00  0.00000000E+00
  0.00000000E+00  0.00000000E+00  0.00000000E+00
  0.00000000E+00  0.00000000E+00  0.00000000E+00
  0.00000000E+00  0.00000000E+00  0.00000000E+00
  0.00000000E+00  0.00000000E+00  0.00000000E+00
  0.00000000E+00  0.00000000E+00  0.00000000E+00
  0.00000000E+00  0.00000000E+00  0.00000000E+00
  0.00000000E+00  0.00000000E+00  0.00000000E+00
  0.00000000E+00  0.00000000E+00  0.00000000E+00
  0.00000000E+00  0.00000000E+00  0.00000000E+00
  0.00000000E+00  0.00000000E+00  0.00000000E+00
  0.00000000E+00  0.00000000E+00  0.00000000E+00
  0.00000000E+00  0.00000000E+00  0.00000000E+00
  0.00000000E+00  0.00000000E+00  0.00000000E+00
  0.00000000E+00  0.00000000E+00  0.00000000E+00
  0.00000000E+00  0.00000000E+00  0.00000000E+00
  0.00000000E+00  0.00000000E+00  0.00000000E+00
  0.00000000E+00  0.00000000E+00  0.00000000E+00
  0.00000000E+00  0.00000000E+00  0.00000000E+00
  0.00000000E+00  0.00000000E+00  0.00000000E+00
  0.00000000E+00  0.00000000E+00  0.00000000E+00
  0.00000000E+00  0.00000000E+00  0.00000000E+00
  0.00000000E+00  0.00000000E+00  0.00000000E+00
  0.00000000E+00  0.00000000E+00  0.00000000E+00
  0.00000000E+00  0.00000000E+00  0.00000000E+00
  0.00000000E+00  0.00000000E+00  0.00000000E+00
  0.00000000E+00  0.00000000E+00  0.00000000E+00
  0.00000000E+00  0.00000000E+00  0.00000000E+00
  0.00000000E+00  0.00000000E+00  0.00000000E+00
  0.00000000E+00  0.00000000E+00  0.00000000E+00
  0.00000000E+00  0.00000000E+00  0.00000000E+00
  0.00000000E+00  0.00000000E+00  0.00000000E+00
  0.00000000E+00  0.00000000E+00  0.00000000E+00
  0.00000000E+00  0.00000000E+00  0.00000000E+00
  0.00000000E+00  0.00000000E+00  0.00000000E+00
  0.00000000E+00  0.00000000E+00  0.00000000E+00
  0.00000000E+00  0.00000000E+00  0.00000000E+00
  0.00000000E+00  0.00000000E+00  0.00000000E+00
  0.00000000E+00  0.00000000E+00  0.00000000E+00
  0.00000000E+00  0.00000000E+00  0.00000000E+00
