FCC Cu                                  
1.0
        7.2600002289         0.0000000000         0.0000000000
        0.0000000000         7.2600002289         0.0000000000
        0.0000000000         0.0000000000        27.7049999237
   Cu
   64
Cartesian
     0.000000000         0.000000000         0.000000000
     0.000000000         3.630000114         0.000000000
     3.630000114         0.000000000         0.000000000
     3.630000114         3.630000114         0.000000000
     1.815000057         1.815000057         0.000000000
     1.815000057         5.445000171         0.000000000
     5.445000171         1.815000057         0.000000000
     5.445000171         5.445000171         0.000000000
     0.000000000         1.815000057         1.815000026
     0.000000000         5.445000171         1.815000026
     3.630000114         1.815000057         1.815000026
     3.630000114         5.445000171         1.815000026
     1.815000057         0.000000000         1.815000026
     1.815000057         3.630000114         1.815000026
     5.445000171         0.000000000         1.815000026
     5.445000171         3.630000114         1.815000026
     0.000000000         0.000000000         3.647121695
     0.000000000         3.630000114         3.647121695
     3.630000114         0.000000000         3.647121695
     3.630000114         3.630000114         3.647121695
     1.815000057         1.815000057         3.647121695
     1.815000057         5.445000171         3.647121695
     5.445000171         1.815000057         3.647121695
     5.445000171         5.445000171         3.647121695
     0.000000000         1.815000057         5.451759809
     0.000000000         5.445000171         5.451759809
     3.630000114         1.815000057         5.451759809
     3.630000114         5.445000171         5.451759809
     1.815000057         0.000000000         5.451759809
     1.815000057         3.630000114         5.451759809
     5.445000171         0.000000000         5.451759809
     5.445000171         3.630000114         5.451759809
     0.000000000         0.000000000         7.254460719
     0.000000000         3.630000114         7.254460719
     3.630000114         0.000000000         7.254460719
     3.630000114         3.630000114         7.254460719
     1.815000057         1.815000057         7.254460719
     1.815000057         5.445000171         7.254460719
     5.445000171         1.815000057         7.254460719
     5.445000171         5.445000171         7.254460719
     0.000000000         1.815000057         9.075849638
     0.000000000         5.445000171         9.075849638
     3.630000114         1.815000057         9.075849638
     3.630000114         5.445000171         9.075849638
     1.815000057         0.000000000         9.075849638
     1.815000057         3.630000114         9.075849638
     5.445000171         0.000000000         9.075849638
     5.445000171         3.630000114         9.075849638
     0.000000000         0.000000000        10.856415491
     0.000000000         3.630000114        10.856415491
     3.630000114         0.000000000        10.856415491
     3.630000114         3.630000114        10.856415491
     1.815000057         1.815000057        10.856415491
     1.815000057         5.445000171        10.856415491
     5.445000171         1.815000057        10.856415491
     5.445000171         5.445000171        10.856415491
     0.000000000         1.815000057        12.598984353
     0.000000000         5.445000171        12.598984353
     3.630000114         1.815000057        12.598984353
     3.630000114         5.445000171        12.598984353
     1.815000057         0.000000000        12.598984353
     1.815000057         3.630000114        12.598984353
     5.445000171         0.000000000        12.598984353
     5.445000171         3.630000114        12.598984353
