FCC Cu                                  
   1.00000000000000     
     7.2600002289000001    0.0000000000000000    0.0000000000000000
     0.0000000000000000    7.2600002289000001    0.0000000000000000
     0.0000000000000000    0.0000000000000000   27.7049999237000009
   Cu
    64
Selective dynamics
Cartesian
0.0 0.0 0.0
0.0 3.630000114000021 0.0
3.630000114000021 0.0 0.0
3.630000114000021 3.630000114000021 0.0
1.8150000569999842 1.8150000569999842 0.0
1.8150000569999842 5.445000171000005 0.0
5.445000171000005 1.8150000569999842 0.0
5.445000171000005 5.445000171000005 0.0
0.0 1.8150000569999842 1.8150000260000616
0.0 5.445000171000005 1.8150000260000616
3.630000114000021 1.8150000569999842 1.8150000260000616
3.630000114000021 5.445000171000005 1.8150000260000616
1.8150000569999842 0.0 1.8150000260000616
1.8150000569999842 3.630000114000021 1.8150000260000616
5.445000171000005 0.0 1.8150000260000616
5.445000171000005 3.630000114000021 1.8150000260000616
0.0 -0.0 3.6471216946022107
0.0 3.630000114000021 3.6471216946022107
3.630000114000021 0.0 3.6471216946022107
3.630000114000021 3.630000114000021 3.6471216946022107
1.8150000569999842 1.8150000569999842 3.6471216946022107
1.8150000569999842 5.445000171000005 3.6471216946022107
5.445000171000005 1.8150000569999842 3.6471216946022107
5.445000171000005 5.445000171000005 3.6471216946022107
0.0 1.8150000569999842 5.45175980850139
0.0 5.445000171000005 5.45175980850139
3.630000114000021 1.8150000569999842 5.45175980850139
3.630000114000021 5.445000171000005 5.45175980850139
1.8150000569999842 -0.0 5.45175980850139
1.8150000569999842 3.630000114000021 5.45175980850139
5.445000171000005 -0.0 5.45175980850139
5.445000171000005 3.630000114000021 5.45175980850139
-0.0 0.0 7.254460718990818
0.0 3.630000114000021 7.254460718990818
3.630000114000021 0.0 7.254460718990818
3.630000114000021 3.630000114000021 7.254460718990818
1.8150000569999842 1.8150000569999842 7.254460718990818
1.8150000569999842 5.445000171000005 7.254460718990818
5.445000171000005 1.8150000569999842 7.254460718990818
5.445000171000005 5.445000171000005 7.254460718990818
0.0 1.8150000569999842 9.075849638155868
0.0 5.445000171000005 9.075849638155868
3.630000114000021 1.8150000569999842 9.075849638155868
3.630000114000021 5.445000171000005 9.075849638155868
1.8150000569999842 0.0 9.075849638155868
1.8150000569999842 3.630000114000021 9.075849638155868
5.445000171000005 -0.0 9.075849638155868
5.445000171000005 3.630000114000021 9.075849638155868
-0.0 0.0 10.856415491249903
-0.0 3.630000114000021 10.856415491249903
3.630000114000021 0.0 10.856415491249903
3.630000114000021 3.630000114000021 10.856415491249903
1.8150000569999842 1.8150000569999842 10.856415491249903
1.8150000569999842 5.445000171000005 10.856415491249903
5.445000171000005 1.8150000569999842 10.856415491249903
5.445000171000005 5.445000171000005 10.856415491249903
-0.0 1.8150000569999842 12.598984353277455
-0.0 5.445000171000005 12.598984353277455
3.630000114000021 1.8150000569999842 12.598984353277455
3.630000114000021 5.445000171000005 12.598984353277455
1.8150000569999842 -0.0 12.598984353277455
1.8150000569999842 3.630000114000021 12.598984353277455
5.445000171000005 -0.0 12.598984353277455
5.445000171000005 3.630000114000021 12.598984353277455
