FCC Cu                                  
   1.00000000000000     
     2.5667977333000001    0.0000000000000000    0.0000000000000000
     1.2833988667000000    2.2229120434000000    0.0000000000000000
     0.0000000000000000    0.0000000000000000   29.6704707700000014
   Cu
     8
Selective dynamics
Direct
  0.0000000000000000  0.0000000000000000  0.0000000000000000   F   F   F
  0.3333333334931865  0.3333333332733517  0.0706352640726919   F   F   F
  0.6666666665967824  0.6666666665467034  0.1390859381787518   T   T   T
  0.0000000000000000 -0.0000000000000000  0.2081651159299656   T   T   T
  0.3333333334931865  0.3333333332733517  0.2765623953714514   T   T   T
  0.6666666665967824  0.6666666665467034  0.3455603388736484   T   T   T
  0.0000000000000000  0.0000000000000000  0.4140059341792443   T   T   T
  0.3333333334931865  0.3333333332733517  0.4813926949613389   T   T   T
 
  0.00000000E+00  0.00000000E+00  0.00000000E+00
  0.00000000E+00  0.00000000E+00  0.00000000E+00
  0.00000000E+00  0.00000000E+00  0.00000000E+00
  0.00000000E+00  0.00000000E+00  0.00000000E+00
  0.00000000E+00  0.00000000E+00  0.00000000E+00
  0.00000000E+00  0.00000000E+00  0.00000000E+00
  0.00000000E+00  0.00000000E+00  0.00000000E+00
  0.00000000E+00  0.00000000E+00  0.00000000E+00
