FCC Cu                                  
   1.00000000000000     
     2.5667977333000001    0.0000000000000000    0.0000000000000000
     1.2833988667000000    2.2229120434000000    0.0000000000000000
     0.0000000000000000    0.0000000000000000   29.6704707700000014
   Cu
     8
Selective dynamics
Cartesian
0.0 0.0 0.0
1.2833988672821328 0.7409706809999994 2.095781538000036
2.5667977330642655 1.4819413619999988 4.126745263250683
0.0 -0.0 6.176356987533706
1.2833988672821328 0.7409706809999994 8.205736467949832
2.5667977330642655 1.4819413619999988 10.25293793382188
0.0 0.0 12.283750968671812
1.2833988672821328 0.7409706809999994 14.283147884741933
