FCC Cu                                  
   1.00000000000000     
     5.1335954666000001    0.0000000000000000    0.0000000000000000
     2.5667977333000001    4.4458240868000001    0.0000000000000000
     0.0000000000000000    0.0000000000000000   29.6704711914000008
   Cu   H 
    32     2
Direct
 -0.0000442295556498  0.0000221147778249 -0.0007032379090445
  0.9999999999183657  0.4999999999100311 -0.0007139280142642
  0.5000221147193895  0.0000221147778249 -0.0007032379090445
  0.5000221148325505  0.4999557703543812 -0.0007032379090445
  0.1667144483262717  0.1665711034838169  0.0686418135282687
  0.1667144484394327  0.6667144481231344  0.0686418135282687
  0.6666666666913983  0.1666666666366794  0.0686662111212534
  0.6665711036517041  0.6667144481231344  0.0686418135282687
  0.3333218557256101  0.3333390720629896  0.1363873771644274
  0.3333333334180466  0.8333333331833828  0.1363688684230894
  0.8333390720360814  0.3333390720629896  0.1363873771644274
  0.8333390721492495  0.8333218556041070  0.1363873771644274
  0.0001252973797945 -0.0000626486898973  0.2046674651938214
  0.9999999999183657  0.4999999999100311  0.2046062174092265
  0.4999373512516679 -0.0000626486898973  0.2046674651938214
  0.4999373513648289  0.5001252972898257  0.2046674651938214
  0.1665150924542058  0.1669698152279485  0.2728654891048191
  0.1665150925673669  0.6665150922510689  0.2728654891048191
  0.6666666666913983  0.1666666666366794  0.2728867688670791
  0.6669698153958354  0.6665150922510689  0.2728654891048191
  0.3333094498856999  0.3333452749829440  0.3412750317122656
  0.3333333334180466  0.8333333331833828  0.3411124954265995
  0.8333452749560363  0.3333452749829440  0.3412750317122656
  0.8333452750692044  0.8333094497641982  0.3412750317122656
  0.0003533395055166 -0.0001766697527583  0.4091693516260957
  0.9999999999183657  0.4999999999100311  0.4091125531053446
  0.4998233301888066 -0.0001766697527583  0.4091693516260957
  0.4998233303019677  0.5003533394155478  0.4091693516260957
  0.1664571759294162  0.1670856482775279  0.4785825039812082
  0.1664571760425772  0.6664571757262789  0.4785825039812082
  0.6666666666913983  0.1666666666366794  0.4785558092946118
  0.6670856484454146  0.6664571757262789  0.4785825039812082
  0.3333333334829831  0.8333333331833828  0.5633900884605096
  0.3333333334829831  0.8333333331833828  0.5889006291328643
 
  0.00000000E+00  0.00000000E+00  0.00000000E+00
  0.00000000E+00  0.00000000E+00  0.00000000E+00
  0.00000000E+00  0.00000000E+00  0.00000000E+00
  0.00000000E+00  0.00000000E+00  0.00000000E+00
  0.00000000E+00  0.00000000E+00  0.00000000E+00
  0.00000000E+00  0.00000000E+00  0.00000000E+00
  0.00000000E+00  0.00000000E+00  0.00000000E+00
  0.00000000E+00  0.00000000E+00  0.00000000E+00
  0.00000000E+00  0.00000000E+00  0.00000000E+00
  0.00000000E+00  0.00000000E+00  0.00000000E+00
  0.00000000E+00  0.00000000E+00  0.00000000E+00
  0.00000000E+00  0.00000000E+00  0.00000000E+00
  0.00000000E+00  0.00000000E+00  0.00000000E+00
  0.00000000E+00  0.00000000E+00  0.00000000E+00
  0.00000000E+00  0.00000000E+00  0.00000000E+00
  0.00000000E+00  0.00000000E+00  0.00000000E+00
  0.00000000E+00  0.00000000E+00  0.00000000E+00
  0.00000000E+00  0.00000000E+00  0.00000000E+00
  0.00000000E+00  0.00000000E+00  0.00000000E+00
  0.00000000E+00  0.00000000E+00  0.00000000E+00
  0.00000000E+00  0.00000000E+00  0.00000000E+00
  0.00000000E+00  0.00000000E+00  0.00000000E+00
  0.00000000E+00  0.00000000E+00  0.00000000E+00
  0.00000000E+00  0.00000000E+00  0.00000000E+00
  0.00000000E+00  0.00000000E+00  0.00000000E+00
  0.00000000E+00  0.00000000E+00  0.00000000E+00
  0.00000000E+00  0.00000000E+00  0.00000000E+00
  0.00000000E+00  0.00000000E+00  0.00000000E+00
  0.00000000E+00  0.00000000E+00  0.00000000E+00
  0.00000000E+00  0.00000000E+00  0.00000000E+00
  0.00000000E+00  0.00000000E+00  0.00000000E+00
  0.00000000E+00  0.00000000E+00  0.00000000E+00
  0.00000000E+00  0.00000000E+00  0.00000000E+00
  0.00000000E+00  0.00000000E+00  0.00000000E+00
