FCC Cu
1.0
7.2600002289         0.0000000000         0.0000000000
0.0000000000         7.2600002289         0.0000000000
0.0000000000         0.0000000000        27.7049999237
Cu H
64 1
Cartesian
0.0     0.0     0.0     F     F     F
0.0     3.630000114     0.0     F     F     F
3.630000114     0.0     0.0     F     F     F
3.630000114     3.630000114     0.0     F     F     F
1.815000057     1.815000057     0.0     F     F     F
1.815000057     5.445000171     0.0     F     F     F
5.445000171     1.815000057     0.0     F     F     F
5.445000171     5.445000171     0.0     F     F     F
0.0     1.815000057     1.815000026     F     F     F
0.0     5.445000171     1.815000026     F     F     F
3.630000114     1.815000057     1.815000026     F     F     F
3.630000114     5.445000171     1.815000026     F     F     F
1.815000057     0.0     1.815000026     F     F     F
1.815000057     3.630000114     1.815000026     F     F     F
5.445000171     0.0     1.815000026     F     F     F
5.445000171     3.630000114     1.815000026     F     F     F
0.0     0.0     3.647121695     F     F     F
0.0     3.630000114     3.647121695     F     F     F
3.630000114     0.0     3.647121695     F     F     F
3.630000114     3.630000114     3.647121695     F     F     F
1.815000057     1.815000057     3.647121695     F     F     F
1.815000057     5.445000171     3.647121695     F     F     F
5.445000171     1.815000057     3.647121695     F     F     F
5.445000171     5.445000171     3.647121695     F     F     F
0.0     1.815000057     5.451759809     T     T     T
0.0     5.445000171     5.451759809     T     T     T
3.630000114     1.815000057     5.451759809     T     T     T
3.630000114     5.445000171     5.451759809     T     T     T
1.815000057     0.0     5.451759809     T     T     T
1.815000057     3.630000114     5.451759809     T     T     T
5.445000171     0.0     5.451759809     T     T     T
5.445000171     3.630000114     5.451759809     T     T     T
0.0     0.0     7.254460719     T     T     T
0.0     3.630000114     7.254460719     T     T     T
3.630000114     0.0     7.254460719     T     T     T
3.630000114     3.630000114     7.254460719     T     T     T
1.815000057     1.815000057     7.254460719     T     T     T
1.815000057     5.445000171     7.254460719     T     T     T
5.445000171     1.815000057     7.254460719     T     T     T
5.445000171     5.445000171     7.254460719     T     T     T
0.0     1.815000057     9.075849638     T     T     T
0.0     5.445000171     9.075849638     T     T     T
3.630000114     1.815000057     9.075849638     T     T     T
3.630000114     5.445000171     9.075849638     T     T     T
1.815000057     0.0     9.075849638     T     T     T
1.815000057     3.630000114     9.075849638     T     T     T
5.445000171     0.0     9.075849638     T     T     T
5.445000171     3.630000114     9.075849638     T     T     T
0.0     0.0     10.856415491     T     T     T
0.0     3.630000114     10.856415491     T     T     T
3.630000114     0.0     10.856415491     T     T     T
3.630000114     3.630000114     10.856415491     T     T     T
1.815000057     1.815000057     10.856415491     T     T     T
1.815000057     5.445000171     10.856415491     T     T     T
5.445000171     1.815000057     10.856415491     T     T     T
5.445000171     5.445000171     10.856415491     T     T     T
0.0     1.815000057     12.598984353     T     T     T
0.0     5.445000171     12.598984353     T     T     T
3.630000114     1.815000057     12.598984353     T     T     T
3.630000114     5.445000171     12.598984353     T     T     T
1.815000057     0.0     12.598984353     T     T     T
1.815000057     3.630000114     12.598984353     T     T     T
5.445000171     0.0     12.598984353     T     T     T
5.445000171     3.630000114     12.598984353     T     T     T
3.630000114000003 3.6300001139999645 13.894239743006775    T   T   T
