FCC Cu                                  
   1.00000000000000     
    10.8900003433000006    0.0000000000000000    0.0000000000000000
     0.0000000000000000    7.7003931998999997    0.0000000000000000
     0.0000000000000000    0.0000000000000000   22.7003929999999983
   Cu
    63
Selective dynamics
Cartesian
0.0 0.0 0.0
0.0 2.566797733000018 0.0
0.0 5.133595467 0.0
3.6300001139999645 0.0 0.0
3.6300001139999645 2.566797733000018 0.0
3.6300001139999645 5.133595467 0.0
7.260000228999964 0.0 0.0
7.260000228999964 2.566797733000018 0.0
7.260000228999964 5.133595467 0.0
1.8150000569999822 1.2833988669999907 1.283398829000009
1.8150000569999822 3.850196600000009 1.283398829000009
1.8150000569999822 6.416994333999991 1.283398829000009
5.445000171000024 1.2833988669999907 1.283398829000009
5.445000171000024 3.850196600000009 1.283398829000009
5.445000171000024 6.416994333999991 1.283398829000009
9.075000286000023 1.2833988669999907 1.283398829000009
9.075000286000023 3.850196600000009 1.283398829000009
9.075000286000023 6.416994333999991 1.283398829000009
-0.0 -0.0 2.521481324071919
0.0 2.566797733000018 2.521481324071919
0.0 5.133595467 2.521481324071919
3.6300001139999645 -0.0 2.521481324071919
3.6300001139999645 2.566797733000018 2.521481324071919
3.6300001139999645 5.133595467 2.521481324071919
7.260000228999964 0.0 2.521481324071919
7.260000228999964 2.566797733000018 2.521481324071919
7.260000228999964 5.133595467 2.521481324071919
1.8150000569999822 1.2833988669999907 3.781743525688461
1.8150000569999822 3.850196600000009 3.781743525688461
1.8150000569999822 6.416994333999991 3.781743525688461
5.445000171000024 1.2833988669999907 3.781743525688461
5.445000171000024 3.850196600000009 3.781743525688461
5.445000171000024 6.416994333999991 3.781743525688461
9.075000286000023 1.2833988669999907 3.781743525688461
9.075000286000023 3.850196600000009 3.781743525688461
9.075000286000023 6.416994333999991 3.781743525688461
-0.0 0.0 5.009707204532664
0.0 2.566797733000018 5.009707204532664
0.0 5.133595467 5.009707204532664
3.6300001139999645 0.0 5.009707204532664
3.6300001139999645 2.566797733000018 5.009707204532664
3.6300001139999645 5.133595467 5.009707204532664
7.260000228999964 0.0 5.009707204532664
7.260000228999964 2.566797733000018 5.009707204532664
7.260000228999964 5.133595467 5.009707204532664
1.8150000569999822 1.2833988669999907 6.316825024495431
1.8150000569999822 3.850196600000009 6.316825024495431
1.8150000569999822 6.416994333999991 6.316825024495429
5.445000171000024 1.2833988669999907 6.316825024495429
5.445000171000024 3.850196600000009 6.316825024495429
5.445000171000024 6.416994333999991 6.316825024495429
9.075000286000023 1.2833988669999907 6.316825024495429
9.075000286000023 3.850196600000009 6.316825024495429
9.075000286000023 6.416994333999991 6.316825024495429
-0.0 0.0 7.464730786971968
0.0 2.566797733000018 7.464730786971968
-0.0 5.133595467 7.464730786971968
3.6300001139999645 0.0 7.464730786971968
3.6300001139999645 2.566797733000018 7.464730786971968
3.6300001139999645 5.133595467 7.464730786971968
7.260000228999964 0.0 7.464730786971968
7.260000228999964 2.566797733000018 7.464730786971968
7.260000228999964 5.133595467 7.464730786971968
