FCC Cu
1.00000000000000
7.7003931998999997    0.0000000000000000    0.0000000000000000
3.8501965999999999    6.6687361303000001    0.0000000000000000
0.0000000000000000    0.0000000000000000   29.6704711914000008
Cu H
72 2
Selective dynamics
Cartesian
0.0     0.0     0.0     F     F     F
1.283398867     2.222912043     0.0     F     F     F
10.2671909329     4.445824087     0.0     F     F     F
2.566797733     0.0     0.0     F     F     F
3.8501966     2.222912043     0.0     F     F     F
5.133595467     4.445824087     0.0     F     F     F
5.133595467     0.0     0.0     F     F     F
6.416994333     2.222912043     0.0     F     F     F
7.7003932     4.445824087     0.0     F     F     F
1.283398867     0.740970681     2.095781568     F     F     F
2.566797734     2.963882724     2.095781568     F     F     F
3.8501966     5.186794768     2.095781568     F     F     F
3.8501966     0.740970681     2.095781568     F     F     F
5.133595467     2.963882724     2.095781568     F     F     F
6.416994334     5.186794768     2.095781568     F     F     F
6.416994334     0.740970681     2.095781568     F     F     F
7.7003932     2.963882724     2.095781568     F     F     F
8.983792067     5.186794768     2.095781568     F     F     F
2.566797733     1.481941362     4.1391342565     F     F     F
3.8501966     3.704853405     4.1391342565     F     F     F
5.133595466     5.927765449     4.1391342565     F     F     F
5.133595466     1.481941362     4.1391342565     F     F     F
6.416994333     3.704853405     4.1391342565     F     F     F
7.7003932     5.927765449     4.1391342565     F     F     F
7.7003932     1.481941362     4.1391342565     F     F     F
8.983792066     3.704853405     4.1391342565     F     F     F
10.26719093     5.927765449     4.1391342565     F     F     F
0.0     0.0     6.1777047792     T     T     T
1.283398867     2.222912043     6.1777047792     T     T     T
10.2671909329     4.445824087     6.1777047792     T     T     T
2.566797733     0.0     6.1777047792     T     T     T
3.8501966     2.222912043     6.1777047792     T     T     T
5.133595467     4.445824087     6.1777047792     T     T     T
5.133595467     0.0     6.1777047792     T     T     T
6.416994333     2.222912043     6.1777047792     T     T     T
7.7003932     4.445824087     6.1777047792     T     T     T
1.283398867     0.740970681     8.230550135     T     T     T
2.566797734     2.963882724     8.230550135     T     T     T
3.8501966     5.186794768     8.230550135     T     T     T
3.8501966     0.740970681     8.230550135     T     T     T
5.133595467     2.963882724     8.230550135     T     T     T
6.416994334     5.186794768     8.230550135     T     T     T
6.416994334     0.740970681     8.230550135     T     T     T
7.7003932     2.963882724     8.230550135     T     T     T
8.983792067     5.186794768     8.230550135     T     T     T
2.566797733     1.481941362     10.2667378176     T     T     T
3.8501966     3.704853405     10.2667378176     T     T     T
5.133595466     5.927765449     10.2667378176     T     T     T
5.133595466     1.481941362     10.2667378176     T     T     T
6.416994333     3.704853405     10.2667378176     T     T     T
7.7003932     5.927765449     10.2667378176     T     T     T
7.7003932     1.481941362     10.2667378176     T     T     T
8.983792066     3.704853405     10.2667378176     T     T     T
10.26719093     5.927765449     10.2667378176     T     T     T
0.0     0.0     12.310114184     T     T     T
1.283398867     2.222912043     12.310114184     T     T     T
10.2671909329     4.445824087     12.310114184     T     T     T
2.566797733     0.0     12.310114184     T     T     T
3.8501966     2.222912043     12.310114184     T     T     T
5.133595467     4.445824087     12.310114184     T     T     T
5.133595467     0.0     12.310114184     T     T     T
6.416994333     2.222912043     12.310114184     T     T     T
7.7003932     4.445824087     12.310114184     T     T     T
1.283398867     0.740970681     14.3517252477     T     T     T
2.566797734     2.963882724     14.3517252477     T     T     T
3.8501966     5.186794768     14.3517252477     T     T     T
3.8501966     0.740970681     14.3517252477     T     T     T
5.133595467     2.963882724     14.3517252477     T     T     T
6.416994334     5.186794768     14.3517252477     T     T     T
6.416994334     0.740970681     14.3517252477     T     T     T
7.7003932     2.963882724     14.3517252477     T     T     T
8.983792067     5.186794768     14.3517252477     T     T     T
3.8501966003333337 3.704853405 15.851725247699997    T   T   T
3.8501966003333337 4.450853405 15.851725247699997    T   T   T
