FCC Cu                                  
   1.00000000000000     
     3.6300001144000000    0.0000000000000000    0.0000000000000000
     0.0000000000000000    3.6300001144000000    0.0000000000000000
     0.0000000000000000    0.0000000000000000   27.7049999237000009
   Cu   H 
    16     2
Direct
  0.0000000000000000  0.0060621145786364 -0.0011226274461539
  0.4999999999449045  0.5060856520555266 -0.0011246456338083
  0.0000000000000000  0.5061395998593083  0.0620984411548978
  0.4999999999449045  0.0061286870658504  0.0620712534683552
  0.0000000000000000  0.0058431595197894  0.1254266729459019
  0.4999999999449045  0.5058322597826078  0.1254287705860254
  0.0000000000000000  0.5054485931628697  0.1884662053319537
  0.4999999999449045  0.0054158393684737  0.1884270196432713
  0.0000000000000000  0.0047356815442834  0.2504517394739894
  0.4999999999449045  0.5047306844132702  0.2504353240141854
  0.0000000000000000  0.5039632744539216  0.3133985679601297
  0.4999999999449045  0.0039862741170507  0.3132862698069451
  0.0000000000000000  0.0030085564285933  0.3765790147985760
  0.4999999999449045  0.5029891401431841  0.3765500789071002
  0.0000000000000000  0.5023056936265892  0.4395340293064965
  0.4999999999449045  0.0025769247294134  0.4391251904119338
  0.9999999998897948  0.4319020723960111  0.5383701079534448
  0.9999999998897948  0.6381630487714161  0.5415953659097563
 
  0.00000000E+00  0.00000000E+00  0.00000000E+00
  0.00000000E+00  0.00000000E+00  0.00000000E+00
  0.00000000E+00  0.00000000E+00  0.00000000E+00
  0.00000000E+00  0.00000000E+00  0.00000000E+00
  0.00000000E+00  0.00000000E+00  0.00000000E+00
  0.00000000E+00  0.00000000E+00  0.00000000E+00
  0.00000000E+00  0.00000000E+00  0.00000000E+00
  0.00000000E+00  0.00000000E+00  0.00000000E+00
  0.00000000E+00  0.00000000E+00  0.00000000E+00
  0.00000000E+00  0.00000000E+00  0.00000000E+00
  0.00000000E+00  0.00000000E+00  0.00000000E+00
  0.00000000E+00  0.00000000E+00  0.00000000E+00
  0.00000000E+00  0.00000000E+00  0.00000000E+00
  0.00000000E+00  0.00000000E+00  0.00000000E+00
  0.00000000E+00  0.00000000E+00  0.00000000E+00
  0.00000000E+00  0.00000000E+00  0.00000000E+00
  0.00000000E+00  0.00000000E+00  0.00000000E+00
  0.00000000E+00  0.00000000E+00  0.00000000E+00
