FCC Cu                                  
   1.00000000000000     
     7.2600002289000001    0.0000000000000000    0.0000000000000000
     0.0000000000000000    7.2600002289000001    0.0000000000000000
     0.0000000000000000    0.0000000000000000   27.7049999237000009
   Cu   H 
    64     2
Direct
  0.0001112354067346 -0.0001112354067346  0.0076288092877684
 -0.0000432441867288  0.5000538982030537  0.0076697952158935
  0.4999461016729849  0.0000432441867288  0.0076697952158935
  0.4999861082260589  0.5000138916499802  0.0075978347579312
  0.2500538982340405  0.2499567557822773  0.0076697952158935
  0.2500138916809669  0.7499861081950647  0.0075978347579312
  0.7498887645002912  0.2501112353757408  0.0076288092877684
  0.7500432440937541  0.7499461016419909  0.0076697952158935
  0.0000032914539899  0.2500032914229959  0.0699186001818632
 -0.0000084641382522  0.7500025587622130  0.0699405595736001
  0.5000025587932071  0.2499915358307540  0.0699405595736001
  0.5000761215953560  0.7500761215643620  0.0698666486085242
  0.2499974411138187  0.0000084641382522  0.0699405595736001
  0.2499238783116700  0.4999238782806835  0.0698666486085242
  0.7499967084530358 -0.0000032914539899  0.0699186001818632
  0.7500084640452777  0.4999974410828323  0.0699405595736001
  0.0000419447094413 -0.0000419447094413  0.1335368776539326
  0.0001062928580661  0.5000970758054035  0.1335090767328341
  0.4999029240706356 -0.0001062928580661  0.1335090767328341
  0.4999418055468459  0.5000581943291924  0.1334864815529358
  0.2500970758363899  0.2501062928270724  0.1335090767328341
  0.2500581943601797  0.7499418055158522  0.1334864815529358
  0.7499580551975839  0.2500419446784475  0.1335368776539326
  0.7498937070489591  0.7499029240396412  0.1335090767328341
 -0.0001158461313211  0.2498841538376849  0.1963622119109830
  0.0001400501018651  0.7501364582627408  0.1963712376984133
  0.5001364582937351  0.2501400500708712  0.1963712376984133
  0.4997986004044566  0.7497986003734628  0.1964372188294983
  0.2498635416132904 -0.0001400501018651  0.1963712376984133
  0.2502013995025690  0.5002013994715820  0.1964372188294983
  0.7501158460383469  0.0001158461313212  0.1963622119109830
  0.7498599498051600  0.4998635415823041  0.1963712376984133
 -0.0001586997789458  0.0001586997789458  0.2589531713520025
 -0.0000600371093113  0.4998797742478345  0.2588862705487087
  0.5001202256282050  0.0000600371093113  0.2588862705487087
  0.5001703772639083  0.4998296226121305  0.2589531860560844
  0.2498797742788212  0.2499399628596949  0.2588862705487087
  0.2498296226431173  0.7501703772329144  0.2589531860560844
  0.7501586996859710  0.2498413001900604  0.2589531713520025
  0.7500600370163371  0.7501202255972111  0.2588862705487087
  0.0001000229428868  0.2501000229118931  0.3219960074559889
 -0.0001874443918724  0.7499721985996439  0.3219586048791045
  0.4999721986306377  0.2498125555771336  0.3219586048791045
  0.5000450438160201  0.7500450437850262  0.3218206296083331
  0.2500278012763877  0.0001874443918724  0.3219586048791045
  0.2499549560910050  0.4999549560600185  0.3218206296083331
  0.7498999769641389 -0.0001000229428868  0.3219960074559889
  0.7501874442988975  0.5000278012454010  0.3219586048791045
 -0.0000433301669995  0.0000433301669995  0.3858709268415994
  0.0000647870918568  0.5000825231241798  0.3857675238811458
  0.4999174767518594 -0.0000647870918568  0.3857675238811458
  0.5000979615588800  0.4999020383171585  0.3857056563824813
  0.2500825231551664  0.2500647870608630  0.3857675238811458
  0.2499020383481456  0.7500979615278861  0.3857056563824813
  0.7500433300740247  0.2499566698020067  0.3858709268415994
  0.7499352128151691  0.7499174767208658  0.3857675238811458
  0.0001246662467750  0.2501246662157811  0.4482667826652791
  0.0000271504091049  0.7499868357137903  0.4481540374675289
  0.4999868357447839  0.2500271503781110  0.4481540374675289
  0.4999213596864456  0.7499213596554518  0.4480458425590320
  0.2500131641622408 -0.0000271504091049  0.4481540374675289
  0.2500786402205798  0.5000786401895929  0.4480458425590320
  0.7498753336602503 -0.0001246662467750  0.4482667826652791
  0.7499728494979210  0.5000131641312539  0.4481540374675289
  0.3749999999535092  0.6249999999225224  0.5322191930508628
  0.3749999999535092  0.6249999999225224  0.5596371544002737
 
  0.00000000E+00  0.00000000E+00  0.00000000E+00
  0.00000000E+00  0.00000000E+00  0.00000000E+00
  0.00000000E+00  0.00000000E+00  0.00000000E+00
  0.00000000E+00  0.00000000E+00  0.00000000E+00
  0.00000000E+00  0.00000000E+00  0.00000000E+00
  0.00000000E+00  0.00000000E+00  0.00000000E+00
  0.00000000E+00  0.00000000E+00  0.00000000E+00
  0.00000000E+00  0.00000000E+00  0.00000000E+00
  0.00000000E+00  0.00000000E+00  0.00000000E+00
  0.00000000E+00  0.00000000E+00  0.00000000E+00
  0.00000000E+00  0.00000000E+00  0.00000000E+00
  0.00000000E+00  0.00000000E+00  0.00000000E+00
  0.00000000E+00  0.00000000E+00  0.00000000E+00
  0.00000000E+00  0.00000000E+00  0.00000000E+00
  0.00000000E+00  0.00000000E+00  0.00000000E+00
  0.00000000E+00  0.00000000E+00  0.00000000E+00
  0.00000000E+00  0.00000000E+00  0.00000000E+00
  0.00000000E+00  0.00000000E+00  0.00000000E+00
  0.00000000E+00  0.00000000E+00  0.00000000E+00
  0.00000000E+00  0.00000000E+00  0.00000000E+00
  0.00000000E+00  0.00000000E+00  0.00000000E+00
  0.00000000E+00  0.00000000E+00  0.00000000E+00
  0.00000000E+00  0.00000000E+00  0.00000000E+00
  0.00000000E+00  0.00000000E+00  0.00000000E+00
  0.00000000E+00  0.00000000E+00  0.00000000E+00
  0.00000000E+00  0.00000000E+00  0.00000000E+00
  0.00000000E+00  0.00000000E+00  0.00000000E+00
  0.00000000E+00  0.00000000E+00  0.00000000E+00
  0.00000000E+00  0.00000000E+00  0.00000000E+00
  0.00000000E+00  0.00000000E+00  0.00000000E+00
  0.00000000E+00  0.00000000E+00  0.00000000E+00
  0.00000000E+00  0.00000000E+00  0.00000000E+00
  0.00000000E+00  0.00000000E+00  0.00000000E+00
  0.00000000E+00  0.00000000E+00  0.00000000E+00
  0.00000000E+00  0.00000000E+00  0.00000000E+00
  0.00000000E+00  0.00000000E+00  0.00000000E+00
  0.00000000E+00  0.00000000E+00  0.00000000E+00
  0.00000000E+00  0.00000000E+00  0.00000000E+00
  0.00000000E+00  0.00000000E+00  0.00000000E+00
  0.00000000E+00  0.00000000E+00  0.00000000E+00
  0.00000000E+00  0.00000000E+00  0.00000000E+00
  0.00000000E+00  0.00000000E+00  0.00000000E+00
  0.00000000E+00  0.00000000E+00  0.00000000E+00
  0.00000000E+00  0.00000000E+00  0.00000000E+00
  0.00000000E+00  0.00000000E+00  0.00000000E+00
  0.00000000E+00  0.00000000E+00  0.00000000E+00
  0.00000000E+00  0.00000000E+00  0.00000000E+00
  0.00000000E+00  0.00000000E+00  0.00000000E+00
  0.00000000E+00  0.00000000E+00  0.00000000E+00
  0.00000000E+00  0.00000000E+00  0.00000000E+00
  0.00000000E+00  0.00000000E+00  0.00000000E+00
  0.00000000E+00  0.00000000E+00  0.00000000E+00
  0.00000000E+00  0.00000000E+00  0.00000000E+00
  0.00000000E+00  0.00000000E+00  0.00000000E+00
  0.00000000E+00  0.00000000E+00  0.00000000E+00
  0.00000000E+00  0.00000000E+00  0.00000000E+00
  0.00000000E+00  0.00000000E+00  0.00000000E+00
  0.00000000E+00  0.00000000E+00  0.00000000E+00
  0.00000000E+00  0.00000000E+00  0.00000000E+00
  0.00000000E+00  0.00000000E+00  0.00000000E+00
  0.00000000E+00  0.00000000E+00  0.00000000E+00
  0.00000000E+00  0.00000000E+00  0.00000000E+00
  0.00000000E+00  0.00000000E+00  0.00000000E+00
  0.00000000E+00  0.00000000E+00  0.00000000E+00
  0.00000000E+00  0.00000000E+00  0.00000000E+00
  0.00000000E+00  0.00000000E+00  0.00000000E+00
