FCC Cu                                  
   1.00000000000000     
     2.5667977333000001    0.0000000000000000    0.0000000000000000
     1.2833988667000000    2.2229120434000000    0.0000000000000000
     0.0000000000000000    0.0000000000000000   23.3831261599999998
   Cu
     5
Selective dynamics
Direct
  0.0000000000000000  0.0000000000000000  0.0000000000000000   F   F   F
  0.3333333334931865  0.3333333332733517  0.0896279446836772   F   F   F
  0.6666666665967824  0.6666666665467034  0.1782285941191584   T   T   T
 -0.0000000000000000 -0.0000000000000000  0.2673323983087859   T   T   T
  0.3333333334931865  0.3333333332733517  0.3529813435770177   T   T   T
 
  0.00000000E+00  0.00000000E+00  0.00000000E+00
  0.00000000E+00  0.00000000E+00  0.00000000E+00
  0.00000000E+00  0.00000000E+00  0.00000000E+00
  0.00000000E+00  0.00000000E+00  0.00000000E+00
  0.00000000E+00  0.00000000E+00  0.00000000E+00
