FCC Cu                                  
   1.00000000000000     
    10.8900003433000006    0.0000000000000000    0.0000000000000000
     0.0000000000000000   10.8900003433000006    0.0000000000000000
     0.0000000000000000    0.0000000000000000   22.2600000000000016
   Cu
    90
Selective dynamics
Direct
  0.0000000000000000  0.0000000000000000  0.0000000000000000   F   F   F
  0.0000000000000000  0.3333333332935382  0.0000000000000000   F   F   F
  0.0000000000000000  0.6666666666789069  0.0000000000000000   F   F   F
  0.3333333332935382  0.0000000000000000  0.0000000000000000   F   F   F
  0.3333333332935382  0.3333333332935382  0.0000000000000000   F   F   F
  0.3333333332935382  0.6666666666789069  0.0000000000000000   F   F   F
  0.6666666666789069  0.0000000000000000  0.0000000000000000   F   F   F
  0.6666666666789069  0.3333333332935382  0.0000000000000000   F   F   F
  0.6666666666789069  0.6666666666789069  0.0000000000000000   F   F   F
  0.1666666666467691  0.1666666666467691  0.0000000000000000   F   F   F
  0.1666666666467691  0.4999999999403144  0.0000000000000000   F   F   F
  0.1666666666467691  0.8333333333256832  0.0000000000000000   F   F   F
  0.4999999999403144  0.1666666666467691  0.0000000000000000   F   F   F
  0.4999999999403144  0.4999999999403144  0.0000000000000000   F   F   F
  0.4999999999403144  0.8333333333256832  0.0000000000000000   F   F   F
  0.8333333333256832  0.1666666666467691  0.0000000000000000   F   F   F
  0.8333333333256832  0.4999999999403144  0.0000000000000000   F   F   F
  0.8333333333256832  0.8333333333256832  0.0000000000000000   F   F   F
  0.0000000000000000  0.1666666666467691  0.0815363893081766   F   F   F
  0.0000000000000000  0.4999999999403144  0.0815363893081766   F   F   F
  0.0000000000000000  0.8333333333256832  0.0815363893081766   F   F   F
  0.3333333332935382  0.1666666666467691  0.0815363893081766   F   F   F
  0.3333333332935382  0.4999999999403144  0.0815363893081766   F   F   F
  0.3333333332935382  0.8333333333256832  0.0815363893081766   F   F   F
  0.6666666666789069  0.1666666666467691  0.0815363893081766   F   F   F
  0.6666666666789069  0.4999999999403144  0.0815363893081766   F   F   F
  0.6666666666789069  0.8333333333256832  0.0815363893081766   F   F   F
  0.1666666666467691  0.0000000000000000  0.0815363893081766   F   F   F
  0.1666666666467691  0.3333333332935382  0.0815363893081766   F   F   F
  0.1666666666467691  0.6666666666789069  0.0815363893081766   F   F   F
  0.4999999999403144  0.0000000000000000  0.0815363893081766   F   F   F
  0.4999999999403144  0.3333333332935382  0.0815363893081766   F   F   F
  0.4999999999403144  0.6666666666789069  0.0815363893081766   F   F   F
  0.8333333333256832  0.0000000000000000  0.0815363893081766   F   F   F
  0.8333333333256832  0.3333333332935382  0.0815363893081766   F   F   F
  0.8333333333256832  0.6666666666789069  0.0815363893081766   F   F   F
  0.0000000000000000 -0.0000000000000000  0.1609135177674484   T   T   T
  0.0000000000000000  0.3333333332935382  0.1609135177674484   T   T   T
  0.0000000000000000  0.6666666666789069  0.1609135177674484   T   T   T
  0.3333333332935382 -0.0000000000000000  0.1609135177674484   T   T   T
  0.3333333332935382  0.3333333332935382  0.1609135177674484   T   T   T
  0.3333333332935382  0.6666666666789069  0.1609135177674484   T   T   T
  0.6666666666789069  0.0000000000000000  0.1609135177674484   T   T   T
  0.6666666666789069  0.3333333332935382  0.1609135177674484   T   T   T
  0.6666666666789069  0.6666666666789069  0.1609135177674484   T   T   T
  0.1666666666467691  0.1666666666467691  0.1609135177674484   T   T   T
  0.1666666666467691  0.4999999999403144  0.1609135177674484   T   T   T
  0.1666666666467691  0.8333333333256832  0.1609135177674484   T   T   T
  0.4999999999403144  0.1666666666467691  0.1609135177674484   T   T   T
  0.4999999999403144  0.4999999999403144  0.1609135177674484   T   T   T
  0.4999999999403144  0.8333333333256832  0.1609135177674484   T   T   T
  0.8333333333256832  0.1666666666467691  0.1609135177674484   T   T   T
  0.8333333333256832  0.4999999999403144  0.1609135177674484   T   T   T
  0.8333333333256832  0.8333333333256832  0.1609135177674484   T   T   T
 -0.0000000000000000  0.1666666666467691  0.2406021612657329   T   T   T
 -0.0000000000000000  0.4999999999403144  0.2406021612657329   T   T   T
  0.0000000000000000  0.8333333333256832  0.2406021612657329   T   T   T
  0.3333333332935382  0.1666666666467691  0.2406021612657329   T   T   T
  0.3333333332935382  0.4999999999403144  0.2406021612657329   T   T   T
  0.3333333332935382  0.8333333333256832  0.2406021612657329   T   T   T
  0.6666666666789069  0.1666666666467691  0.2406021612657329   T   T   T
  0.6666666666789069  0.4999999999403144  0.2406021612657329   T   T   T
  0.6666666666789069  0.8333333333256832  0.2406021612657329   T   T   T
  0.1666666666467691  0.0000000000000000  0.2406021612657329   T   T   T
  0.1666666666467691  0.3333333332935382  0.2406021612657329   T   T   T
  0.1666666666467691  0.6666666666789069  0.2406021612657329   T   T   T
  0.4999999999403144  0.0000000000000000  0.2406021612657329   T   T   T
  0.4999999999403144  0.3333333332935382  0.2406021612657329   T   T   T
  0.4999999999403144  0.6666666666789069  0.2406021612657329   T   T   T
  0.8333333333256832 -0.0000000000000000  0.2406021612657329   T   T   T
  0.8333333333256832  0.3333333332935382  0.2406021612657329   T   T   T
  0.8333333333256832  0.6666666666789069  0.2406021612657329   T   T   T
 -0.0000000000000000  0.0000000000000000  0.3183043396478516   T   T   T
 -0.0000000000000000  0.3333333332935382  0.3183043396478516   T   T   T
 -0.0000000000000000  0.6666666666789069  0.3183043396478516   T   T   T
  0.3333333332935382 -0.0000000000000000  0.3183043396478516   T   T   T
  0.3333333332935382  0.3333333332935382  0.3183043396478516   T   T   T
  0.3333333332935382  0.6666666666789069  0.3183043396478516   T   T   T
  0.6666666666789069  0.0000000000000000  0.3183043396478516   T   T   T
  0.6666666666789069  0.3333333332935382  0.3183043396478516   T   T   T
  0.6666666666789069  0.6666666666789069  0.3183043396478516   T   T   T
  0.1666666666467691  0.1666666666467691  0.3183043396478516   T   T   T
  0.1666666666467691  0.4999999999403144  0.3183043396478516   T   T   T
  0.1666666666467691  0.8333333333256832  0.3183043396478516   T   T   T
  0.4999999999403144  0.1666666666467691  0.3183043396478516   T   T   T
  0.4999999999403144  0.4999999999403144  0.3183043396478516   T   T   T
  0.4999999999403144  0.8333333333256832  0.3183043396478516   T   T   T
  0.8333333333256832  0.1666666666467691  0.3183043396478516   T   T   T
  0.8333333333256832  0.4999999999403144  0.3183043396478516   T   T   T
  0.8333333333256832  0.8333333333256832  0.3183043396478516   T   T   T
 
  0.00000000E+00  0.00000000E+00  0.00000000E+00
  0.00000000E+00  0.00000000E+00  0.00000000E+00
  0.00000000E+00  0.00000000E+00  0.00000000E+00
  0.00000000E+00  0.00000000E+00  0.00000000E+00
  0.00000000E+00  0.00000000E+00  0.00000000E+00
  0.00000000E+00  0.00000000E+00  0.00000000E+00
  0.00000000E+00  0.00000000E+00  0.00000000E+00
  0.00000000E+00  0.00000000E+00  0.00000000E+00
  0.00000000E+00  0.00000000E+00  0.00000000E+00
  0.00000000E+00  0.00000000E+00  0.00000000E+00
  0.00000000E+00  0.00000000E+00  0.00000000E+00
  0.00000000E+00  0.00000000E+00  0.00000000E+00
  0.00000000E+00  0.00000000E+00  0.00000000E+00
  0.00000000E+00  0.00000000E+00  0.00000000E+00
  0.00000000E+00  0.00000000E+00  0.00000000E+00
  0.00000000E+00  0.00000000E+00  0.00000000E+00
  0.00000000E+00  0.00000000E+00  0.00000000E+00
  0.00000000E+00  0.00000000E+00  0.00000000E+00
  0.00000000E+00  0.00000000E+00  0.00000000E+00
  0.00000000E+00  0.00000000E+00  0.00000000E+00
  0.00000000E+00  0.00000000E+00  0.00000000E+00
  0.00000000E+00  0.00000000E+00  0.00000000E+00
  0.00000000E+00  0.00000000E+00  0.00000000E+00
  0.00000000E+00  0.00000000E+00  0.00000000E+00
  0.00000000E+00  0.00000000E+00  0.00000000E+00
  0.00000000E+00  0.00000000E+00  0.00000000E+00
  0.00000000E+00  0.00000000E+00  0.00000000E+00
  0.00000000E+00  0.00000000E+00  0.00000000E+00
  0.00000000E+00  0.00000000E+00  0.00000000E+00
  0.00000000E+00  0.00000000E+00  0.00000000E+00
  0.00000000E+00  0.00000000E+00  0.00000000E+00
  0.00000000E+00  0.00000000E+00  0.00000000E+00
  0.00000000E+00  0.00000000E+00  0.00000000E+00
  0.00000000E+00  0.00000000E+00  0.00000000E+00
  0.00000000E+00  0.00000000E+00  0.00000000E+00
  0.00000000E+00  0.00000000E+00  0.00000000E+00
  0.00000000E+00  0.00000000E+00  0.00000000E+00
  0.00000000E+00  0.00000000E+00  0.00000000E+00
  0.00000000E+00  0.00000000E+00  0.00000000E+00
  0.00000000E+00  0.00000000E+00  0.00000000E+00
  0.00000000E+00  0.00000000E+00  0.00000000E+00
  0.00000000E+00  0.00000000E+00  0.00000000E+00
  0.00000000E+00  0.00000000E+00  0.00000000E+00
  0.00000000E+00  0.00000000E+00  0.00000000E+00
  0.00000000E+00  0.00000000E+00  0.00000000E+00
  0.00000000E+00  0.00000000E+00  0.00000000E+00
  0.00000000E+00  0.00000000E+00  0.00000000E+00
  0.00000000E+00  0.00000000E+00  0.00000000E+00
  0.00000000E+00  0.00000000E+00  0.00000000E+00
  0.00000000E+00  0.00000000E+00  0.00000000E+00
  0.00000000E+00  0.00000000E+00  0.00000000E+00
  0.00000000E+00  0.00000000E+00  0.00000000E+00
  0.00000000E+00  0.00000000E+00  0.00000000E+00
  0.00000000E+00  0.00000000E+00  0.00000000E+00
  0.00000000E+00  0.00000000E+00  0.00000000E+00
  0.00000000E+00  0.00000000E+00  0.00000000E+00
  0.00000000E+00  0.00000000E+00  0.00000000E+00
  0.00000000E+00  0.00000000E+00  0.00000000E+00
  0.00000000E+00  0.00000000E+00  0.00000000E+00
  0.00000000E+00  0.00000000E+00  0.00000000E+00
  0.00000000E+00  0.00000000E+00  0.00000000E+00
  0.00000000E+00  0.00000000E+00  0.00000000E+00
  0.00000000E+00  0.00000000E+00  0.00000000E+00
  0.00000000E+00  0.00000000E+00  0.00000000E+00
  0.00000000E+00  0.00000000E+00  0.00000000E+00
  0.00000000E+00  0.00000000E+00  0.00000000E+00
  0.00000000E+00  0.00000000E+00  0.00000000E+00
  0.00000000E+00  0.00000000E+00  0.00000000E+00
  0.00000000E+00  0.00000000E+00  0.00000000E+00
  0.00000000E+00  0.00000000E+00  0.00000000E+00
  0.00000000E+00  0.00000000E+00  0.00000000E+00
  0.00000000E+00  0.00000000E+00  0.00000000E+00
  0.00000000E+00  0.00000000E+00  0.00000000E+00
  0.00000000E+00  0.00000000E+00  0.00000000E+00
  0.00000000E+00  0.00000000E+00  0.00000000E+00
  0.00000000E+00  0.00000000E+00  0.00000000E+00
  0.00000000E+00  0.00000000E+00  0.00000000E+00
  0.00000000E+00  0.00000000E+00  0.00000000E+00
  0.00000000E+00  0.00000000E+00  0.00000000E+00
  0.00000000E+00  0.00000000E+00  0.00000000E+00
  0.00000000E+00  0.00000000E+00  0.00000000E+00
  0.00000000E+00  0.00000000E+00  0.00000000E+00
  0.00000000E+00  0.00000000E+00  0.00000000E+00
  0.00000000E+00  0.00000000E+00  0.00000000E+00
  0.00000000E+00  0.00000000E+00  0.00000000E+00
  0.00000000E+00  0.00000000E+00  0.00000000E+00
  0.00000000E+00  0.00000000E+00  0.00000000E+00
  0.00000000E+00  0.00000000E+00  0.00000000E+00
  0.00000000E+00  0.00000000E+00  0.00000000E+00
  0.00000000E+00  0.00000000E+00  0.00000000E+00
