FCC Cu                                  
   1.00000000000000     
    10.8900003433000006    0.0000000000000000    0.0000000000000000
     0.0000000000000000   10.8900003433000006    0.0000000000000000
     0.0000000000000000    0.0000000000000000   22.2600000000000016
   Cu
    90
Selective dynamics
Cartesian
0.0 0.0 0.0
0.0 3.6300001139999645 0.0
0.0 7.260000228999964 0.0
3.6300001139999645 0.0 0.0
3.6300001139999645 3.6300001139999645 0.0
3.6300001139999645 7.260000228999964 0.0
7.260000228999964 0.0 0.0
7.260000228999964 3.6300001139999645 0.0
7.260000228999964 7.260000228999964 0.0
1.8150000569999822 1.8150000569999822 0.0
1.8150000569999822 5.445000171000024 0.0
1.8150000569999822 9.075000286000023 0.0
5.445000171000024 1.8150000569999822 0.0
5.445000171000024 5.445000171000024 0.0
5.445000171000024 9.075000286000023 0.0
9.075000286000023 1.8150000569999822 0.0
9.075000286000023 5.445000171000024 0.0
9.075000286000023 9.075000286000023 0.0
0.0 1.8150000569999822 1.8150000260000112
0.0 5.445000171000024 1.8150000260000112
0.0 9.075000286000023 1.8150000260000112
3.6300001139999645 1.8150000569999822 1.8150000260000112
3.6300001139999645 5.445000171000024 1.8150000260000112
3.6300001139999645 9.075000286000023 1.8150000260000112
7.260000228999964 1.8150000569999822 1.8150000260000112
7.260000228999964 5.445000171000024 1.8150000260000112
7.260000228999964 9.075000286000023 1.8150000260000112
1.8150000569999822 0.0 1.8150000260000112
1.8150000569999822 3.6300001139999645 1.8150000260000112
1.8150000569999822 7.260000228999964 1.8150000260000112
5.445000171000024 0.0 1.8150000260000112
5.445000171000024 3.6300001139999645 1.8150000260000112
5.445000171000024 7.260000228999964 1.8150000260000112
9.075000286000023 0.0 1.8150000260000112
9.075000286000023 3.6300001139999645 1.8150000260000112
9.075000286000023 7.260000228999964 1.8150000260000112
0.0 -0.0 3.5819349055034015
0.0 3.6300001139999645 3.5819349055034015
0.0 7.260000228999964 3.5819349055034015
3.6300001139999645 -0.0 3.5819349055034015
3.6300001139999645 3.6300001139999645 3.5819349055034015
3.6300001139999645 7.260000228999964 3.5819349055034015
7.260000228999964 0.0 3.5819349055034015
7.260000228999964 3.6300001139999645 3.5819349055034015
7.260000228999964 7.260000228999964 3.5819349055034015
1.8150000569999822 1.8150000569999822 3.5819349055034015
1.8150000569999822 5.445000171000024 3.5819349055034015
1.8150000569999822 9.075000286000023 3.5819349055034015
5.445000171000024 1.8150000569999822 3.5819349055034015
5.445000171000024 5.445000171000024 3.5819349055034015
5.445000171000024 9.075000286000023 3.5819349055034015
9.075000286000023 1.8150000569999822 3.5819349055034015
9.075000286000023 5.445000171000024 3.5819349055034015
9.075000286000023 9.075000286000023 3.5819349055034015
-0.0 1.8150000569999822 5.355804109775215
-0.0 5.445000171000024 5.355804109775215
0.0 9.075000286000023 5.355804109775215
3.6300001139999645 1.8150000569999822 5.355804109775215
3.6300001139999645 5.445000171000024 5.355804109775215
3.6300001139999645 9.075000286000023 5.355804109775215
7.260000228999964 1.8150000569999822 5.355804109775215
7.260000228999964 5.445000171000024 5.355804109775215
7.260000228999964 9.075000286000023 5.355804109775215
1.8150000569999822 0.0 5.355804109775215
1.8150000569999822 3.6300001139999645 5.355804109775215
1.8150000569999822 7.260000228999964 5.355804109775215
5.445000171000024 0.0 5.355804109775215
5.445000171000024 3.6300001139999645 5.355804109775215
5.445000171000024 7.260000228999964 5.355804109775215
9.075000286000023 -0.0 5.355804109775215
9.075000286000023 3.6300001139999645 5.355804109775215
9.075000286000023 7.260000228999964 5.355804109775215
-0.0 0.0 7.085454600561177
-0.0 3.6300001139999645 7.085454600561177
-0.0 7.260000228999964 7.085454600561177
3.6300001139999645 -0.0 7.085454600561177
3.6300001139999645 3.6300001139999645 7.085454600561177
3.6300001139999645 7.260000228999964 7.085454600561177
7.260000228999964 0.0 7.085454600561177
7.260000228999964 3.6300001139999645 7.085454600561177
7.260000228999964 7.260000228999964 7.085454600561177
1.8150000569999822 1.8150000569999822 7.085454600561177
1.8150000569999822 5.445000171000024 7.085454600561177
1.8150000569999822 9.075000286000023 7.085454600561177
5.445000171000024 1.8150000569999822 7.085454600561177
5.445000171000024 5.445000171000024 7.085454600561177
5.445000171000024 9.075000286000023 7.085454600561177
9.075000286000023 1.8150000569999822 7.085454600561177
9.075000286000023 5.445000171000024 7.085454600561177
9.075000286000023 9.075000286000023 7.085454600561177
