FCC Cu
1.0
        7.7003931999         0.0000000000         0.0000000000
        3.8501966000         6.6687361303         0.0000000000
        0.0000000000         0.0000000000        29.6704711914
   Cu
   72
Selective dynamics
Cartesian
0	0	0	F	F	F
1.283398867	2.222912043	0	F	F	F
2.566797733	4.445824087	0	F	F	F
2.566797733	0	0	F	F	F
3.8501966	2.222912043	0	F	F	F
5.133595467	4.445824087	0	F	F	F
5.133595467	0	0	F	F	F
6.416994333	2.222912043	0	F	F	F
7.7003932	4.445824087	0	F	F	F
1.283398867	0.740970681	2.095781568	F	F	F
2.566797734	2.963882724	2.095781568	F	F	F
3.8501966	5.186794768	2.095781568	F	F	F
3.8501966	0.740970681	2.095781568	F	F	F
5.133595467	2.963882724	2.095781568	F	F	F
6.416994334	5.186794768	2.095781568	F	F	F
6.416994334	0.740970681	2.095781568	F	F	F
7.7003932	2.963882724	2.095781568	F	F	F
8.983792067	5.186794768	2.095781568	F	F	F
2.566797733	1.481941362	4.191563136	T	T	T
3.8501966	3.704853405	4.191563136	T	T	T
5.133595466	5.927765449	4.191563136	T	T	T
5.133595466	1.481941362	4.191563136	T	T	T
6.416994333	3.704853405	4.191563136	T	T	T
7.7003932	5.927765449	4.191563136	T	T	T
7.7003932	1.481941362	4.191563136	T	T	T
8.983792066	3.704853405	4.191563136	T	T	T
10.26719093	5.927765449	4.191563136	T	T	T
0	0	6.287344704	T	T	T
1.283398867	2.222912043	6.287344704	T	T	T
2.566797733	4.445824087	6.287344704	T	T	T
2.566797733	0	6.287344704	T	T	T
3.8501966	2.222912043	6.287344704	T	T	T
5.133595467	4.445824087	6.287344704	T	T	T
5.133595467	0	6.287344704	T	T	T
6.416994333	2.222912043	6.287344704	T	T	T
7.7003932	4.445824087	6.287344704	T	T	T
1.283398867	0.740970681	8.383126272	T	T	T
2.566797734	2.963882724	8.383126272	T	T	T
3.8501966	5.186794768	8.383126272	T	T	T
3.8501966	0.740970681	8.383126272	T	T	T
5.133595467	2.963882724	8.383126272	T	T	T
6.416994334	5.186794768	8.383126272	T	T	T
6.416994334	0.740970681	8.383126272	T	T	T
7.7003932	2.963882724	8.383126272	T	T	T
8.983792067	5.186794768	8.383126272	T	T	T
2.566797733	1.481941362	10.47890784	T	T	T
3.8501966	3.704853405	10.47890784	T	T	T
5.133595466	5.927765449	10.47890784	T	T	T
5.133595466	1.481941362	10.47890784	T	T	T
6.416994333	3.704853405	10.47890784	T	T	T
7.7003932	5.927765449	10.47890784	T	T	T
7.7003932	1.481941362	10.47890784	T	T	T
8.983792066	3.704853405	10.47890784	T	T	T
10.26719093	5.927765449	10.47890784	T	T	T
0	0	12.57468941	T	T	T
1.283398867	2.222912043	12.57468941	T	T	T
2.566797733	4.445824087	12.57468941	T	T	T
2.566797733	0	12.57468941	T	T	T
3.8501966	2.222912043	12.57468941	T	T	T
5.133595467	4.445824087	12.57468941	T	T	T
5.133595467	0	12.57468941	T	T	T
6.416994333	2.222912043	12.57468941	T	T	T
7.7003932	4.445824087	12.57468941	T	T	T
1.283398867	0.740970681	14.67047098	T	T	T
2.566797734	2.963882724	14.67047098	T	T	T
3.8501966	5.186794768	14.67047098	T	T	T
3.8501966	0.740970681	14.67047098	T	T	T
5.133595467	2.963882724	14.67047098	T	T	T
6.416994334	5.186794768	14.67047098	T	T	T
6.416994334	0.740970681	14.67047098	T	T	T
7.7003932	2.963882724	14.67047098	T	T	T
8.983792067	5.186794768	14.67047098	T	T	T
