FCC Cu                                  
1.0
       10.8900003433         0.0000000000         0.0000000000
        0.0000000000        10.8900003433         0.0000000000
0.0000000000 0.0000000000 22.260000
   Cu
90
Selective dynamics
Cartesian
     0	0	0	F	F	F
0	3.630000114	0	F	F	F
0	7.260000229	0	F	F	F
3.630000114	0	0	F	F	F
3.630000114	3.630000114	0	F	F	F
3.630000114	7.260000229	0	F	F	F
7.260000229	0	0	F	F	F
7.260000229	3.630000114	0	F	F	F
7.260000229	7.260000229	0	F	F	F
1.815000057	1.815000057	0	F	F	F
1.815000057	5.445000171	0	F	F	F
1.815000057	9.075000286	0	F	F	F
5.445000171	1.815000057	0	F	F	F
5.445000171	5.445000171	0	F	F	F
5.445000171	9.075000286	0	F	F	F
9.075000286	1.815000057	0	F	F	F
9.075000286	5.445000171	0	F	F	F
9.075000286	9.075000286	0	F	F	F
0	1.815000057	1.815000026	F	F	F
0	5.445000171	1.815000026	F	F	F
0	9.075000286	1.815000026	F	F	F
3.630000114	1.815000057	1.815000026	F	F	F
3.630000114	5.445000171	1.815000026	F	F	F
3.630000114	9.075000286	1.815000026	F	F	F
7.260000229	1.815000057	1.815000026	F	F	F
7.260000229	5.445000171	1.815000026	F	F	F
7.260000229	9.075000286	1.815000026	F	F	F
1.815000057	0	1.815000026	F	F	F
1.815000057	3.630000114	1.815000026	F	F	F
1.815000057	7.260000229	1.815000026	F	F	F
5.445000171	0	1.815000026	F	F	F
5.445000171	3.630000114	1.815000026	F	F	F
5.445000171	7.260000229	1.815000026	F	F	F
9.075000286	0	1.815000026	F	F	F
9.075000286	3.630000114	1.815000026	F	F	F
9.075000286	7.260000229	1.815000026	F	F	F
0	0	3.630000051	T	T	T
0	3.630000114	3.630000051	T	T	T
0	7.260000229	3.630000051	T	T	T
3.630000114	0	3.630000051	T	T	T
3.630000114	3.630000114	3.630000051	T	T	T
3.630000114	7.260000229	3.630000051	T	T	T
7.260000229	0	3.630000051	T	T	T
7.260000229	3.630000114	3.630000051	T	T	T
7.260000229	7.260000229	3.630000051	T	T	T
1.815000057	1.815000057	3.630000051	T	T	T
1.815000057	5.445000171	3.630000051	T	T	T
1.815000057	9.075000286	3.630000051	T	T	T
5.445000171	1.815000057	3.630000051	T	T	T
5.445000171	5.445000171	3.630000051	T	T	T
5.445000171	9.075000286	3.630000051	T	T	T
9.075000286	1.815000057	3.630000051	T	T	T
9.075000286	5.445000171	3.630000051	T	T	T
9.075000286	9.075000286	3.630000051	T	T	T
0	1.815000057	5.445000078	T	T	T
0	5.445000171	5.445000078	T	T	T
0	9.075000286	5.445000078	T	T	T
3.630000114	1.815000057	5.445000078	T	T	T
3.630000114	5.445000171	5.445000078	T	T	T
3.630000114	9.075000286	5.445000078	T	T	T
7.260000229	1.815000057	5.445000078	T	T	T
7.260000229	5.445000171	5.445000078	T	T	T
7.260000229	9.075000286	5.445000078	T	T	T
1.815000057	0	5.445000078	T	T	T
1.815000057	3.630000114	5.445000078	T	T	T
1.815000057	7.260000229	5.445000078	T	T	T
5.445000171	0	5.445000078	T	T	T
5.445000171	3.630000114	5.445000078	T	T	T
5.445000171	7.260000229	5.445000078	T	T	T
9.075000286	0	5.445000078	T	T	T
9.075000286	3.630000114	5.445000078	T	T	T
9.075000286	7.260000229	5.445000078	T	T	T
0	0	7.260000104	T	T	T
0	3.630000114	7.260000104	T	T	T
0	7.260000229	7.260000104	T	T	T
3.630000114	0	7.260000104	T	T	T
3.630000114	3.630000114	7.260000104	T	T	T
3.630000114	7.260000229	7.260000104	T	T	T
7.260000229	0	7.260000104	T	T	T
7.260000229	3.630000114	7.260000104	T	T	T
7.260000229	7.260000229	7.260000104	T	T	T
1.815000057	1.815000057	7.260000104	T	T	T
1.815000057	5.445000171	7.260000104	T	T	T
1.815000057	9.075000286	7.260000104	T	T	T
5.445000171	1.815000057	7.260000104	T	T	T
5.445000171	5.445000171	7.260000104	T	T	T
5.445000171	9.075000286	7.260000104	T	T	T
9.075000286	1.815000057	7.260000104	T	T	T
9.075000286	5.445000171	7.260000104	T	T	T
9.075000286	9.075000286	7.260000104	T	T	T

