FCC Cu                                  
   1.00000000000000     
     3.6300001144000000    0.0000000000000000    0.0000000000000000
     0.0000000000000000    2.5667977333000001    0.0000000000000000
     0.0000000000000000    0.0000000000000000   23.9837913512999990
   Cu   H 
     8     2
Direct
  0.0000000000000000 -0.0211701670281651 -0.0020009295100586
  0.4999999999449045  0.4722240688452027  0.0453043953754662
  0.0000000000000000 -0.0414039479523480  0.0995627790355069
  0.4999999999449045  0.4503713003968282  0.1516974697209780
  0.0000000000000000 -0.0564850930866268  0.2040103319849990
  0.4999999999449045  0.4390387197031050  0.2566517264733508
  0.0000000000000000 -0.0612867141559768  0.3105282374738372
  0.4999999999449045  0.4400742785097679  0.3578784846128724
  0.4999999998347207  0.2317353312416223  0.4391534859734805
  0.4999999998347207  0.4375367336486163  0.4625436677308780
 
  0.00000000E+00  0.00000000E+00  0.00000000E+00
  0.00000000E+00  0.00000000E+00  0.00000000E+00
  0.00000000E+00  0.00000000E+00  0.00000000E+00
  0.00000000E+00  0.00000000E+00  0.00000000E+00
  0.00000000E+00  0.00000000E+00  0.00000000E+00
  0.00000000E+00  0.00000000E+00  0.00000000E+00
  0.00000000E+00  0.00000000E+00  0.00000000E+00
  0.00000000E+00  0.00000000E+00  0.00000000E+00
  0.00000000E+00  0.00000000E+00  0.00000000E+00
  0.00000000E+00  0.00000000E+00  0.00000000E+00
