FCC Cu                                  
   1.00000000000000     
     5.1335954666000001    0.0000000000000000    0.0000000000000000
     2.5667977333000001    4.4458240868000001    0.0000000000000000
     0.0000000000000000    0.0000000000000000   29.6704711914000008
   Cu   H 
    32     2
Direct
 -0.0007694597458027  0.0015389194916055  0.0004543599618451
  0.9990275252027774  0.5014686211360829  0.0003653844601192
  0.4993136568234647  0.0013726862362010  0.0003662942996843
  0.4995038535442629  0.5014686211360829  0.0003653844601192
  0.1658003665394909  0.1683855682825990  0.0696702974447636
  0.1657589077612429  0.6684821847502200  0.0696736308524987
  0.6658140652558284  0.1683855682825990  0.0696702974447636
  0.6658147550550827  0.6683704900456717  0.0699040631271814
  0.3320226870299999  0.3359546258231230  0.1375516687568724
  0.3315287469820684  0.8361432079980524  0.1376621132740591
  0.8323993966583659  0.3352012064495064  0.1377006757700102
  0.8323280449809205  0.8361432079980524  0.1376621132740591
 -0.0020140766498330  0.0040281532996659  0.2061591749929647
 -0.0016645869357377  0.5037305497662796  0.2058238908883771
  0.4978803782112773  0.0042392434605752  0.2058542714136931
  0.4979340370525807  0.5037305497662796  0.2058238908883771
  0.1648503658849568  0.1715612486079758  0.2741743702506206
  0.1649066329415622  0.6701867343895818  0.2741953262220124
  0.6635883855849857  0.1715612486079758  0.2741743702506206
  0.6646058384225596  0.6707883233107170  0.2742711301663758
  0.3304897213576835  0.3390205571677561  0.3429274148669550
  0.3292787234610182  0.8400226701022209  0.3423521585234833
  0.8307277263263396  0.3385445471135596  0.3423612130291033
  0.8306986063978012  0.8400226701022209  0.3423521585234833
 -0.0037285849058515  0.0074571698117030  0.4098586813829772
  0.9930197517102148  0.5086833168273845  0.4103039050061406
  0.4982219195302648  0.0035561608226004  0.4103639249435284
  0.4982969313455236  0.5086833168273845  0.4103039050061406
  0.1630144183421728  0.1729330946563211  0.4780270410873890
  0.1633804299263497  0.6732391404200063  0.4775961006818604
  0.6640524870794245  0.1729330946563211  0.4780270410873890
  0.6636687070141742  0.6726625861274880  0.4816273794924925
  0.7022791644234750  0.5954416713088860  0.5469678000717120
  0.6140715226033809  0.7718569549490747  0.5458088214931943
 
  0.00000000E+00  0.00000000E+00  0.00000000E+00
  0.00000000E+00  0.00000000E+00  0.00000000E+00
  0.00000000E+00  0.00000000E+00  0.00000000E+00
  0.00000000E+00  0.00000000E+00  0.00000000E+00
  0.00000000E+00  0.00000000E+00  0.00000000E+00
  0.00000000E+00  0.00000000E+00  0.00000000E+00
  0.00000000E+00  0.00000000E+00  0.00000000E+00
  0.00000000E+00  0.00000000E+00  0.00000000E+00
  0.00000000E+00  0.00000000E+00  0.00000000E+00
  0.00000000E+00  0.00000000E+00  0.00000000E+00
  0.00000000E+00  0.00000000E+00  0.00000000E+00
  0.00000000E+00  0.00000000E+00  0.00000000E+00
  0.00000000E+00  0.00000000E+00  0.00000000E+00
  0.00000000E+00  0.00000000E+00  0.00000000E+00
  0.00000000E+00  0.00000000E+00  0.00000000E+00
  0.00000000E+00  0.00000000E+00  0.00000000E+00
  0.00000000E+00  0.00000000E+00  0.00000000E+00
  0.00000000E+00  0.00000000E+00  0.00000000E+00
  0.00000000E+00  0.00000000E+00  0.00000000E+00
  0.00000000E+00  0.00000000E+00  0.00000000E+00
  0.00000000E+00  0.00000000E+00  0.00000000E+00
  0.00000000E+00  0.00000000E+00  0.00000000E+00
  0.00000000E+00  0.00000000E+00  0.00000000E+00
  0.00000000E+00  0.00000000E+00  0.00000000E+00
  0.00000000E+00  0.00000000E+00  0.00000000E+00
  0.00000000E+00  0.00000000E+00  0.00000000E+00
  0.00000000E+00  0.00000000E+00  0.00000000E+00
  0.00000000E+00  0.00000000E+00  0.00000000E+00
  0.00000000E+00  0.00000000E+00  0.00000000E+00
  0.00000000E+00  0.00000000E+00  0.00000000E+00
  0.00000000E+00  0.00000000E+00  0.00000000E+00
  0.00000000E+00  0.00000000E+00  0.00000000E+00
  0.00000000E+00  0.00000000E+00  0.00000000E+00
  0.00000000E+00  0.00000000E+00  0.00000000E+00
