FCC Cu                                  
   1.00000000000000     
     3.6300001144000000    0.0000000000000000    0.0000000000000000
     0.0000000000000000    3.6300001144000000    0.0000000000000000
     0.0000000000000000    0.0000000000000000   27.7049999237000009
   Cu   H 
    16     2
Direct
  0.0000000000000000  0.0000000000000000 -0.0002321789040158
  0.4999999999449045  0.4999999999449045 -0.0002321789040158
  0.0000000000000000  0.4999999999449045  0.0626724204400896
  0.4999999999449045  0.0000000000000000  0.0626653099417588
  0.0000000000000000  0.0000000000000000  0.1258599140984754
  0.4999999999449045  0.4999999999449045  0.1258599140984754
  0.0000000000000000  0.4999999999449045  0.1889291579228335
  0.4999999999449045  0.0000000000000000  0.1889090299514807
  0.0000000000000000  0.0000000000000000  0.2508172871698203
  0.4999999999449045  0.4999999999449045  0.2508172871698203
  0.0000000000000000  0.4999999999449045  0.3138770118690717
  0.4999999999449045  0.0000000000000000  0.3138520664086024
  0.0000000000000000  0.0000000000000000  0.3771057173267131
  0.4999999999449045  0.4999999999449045  0.3771057173267131
  0.0000000000000000  0.4999999999449045  0.4398643139247733
  0.4999999999449045  0.0000000000000000  0.4396610755465931
  0.9999999998897948  0.4999999998347207  0.5259725223528271
  0.9999999998897948  0.4999999998347207  0.5533789940595054
 
  0.00000000E+00  0.00000000E+00  0.00000000E+00
  0.00000000E+00  0.00000000E+00  0.00000000E+00
  0.00000000E+00  0.00000000E+00  0.00000000E+00
  0.00000000E+00  0.00000000E+00  0.00000000E+00
  0.00000000E+00  0.00000000E+00  0.00000000E+00
  0.00000000E+00  0.00000000E+00  0.00000000E+00
  0.00000000E+00  0.00000000E+00  0.00000000E+00
  0.00000000E+00  0.00000000E+00  0.00000000E+00
  0.00000000E+00  0.00000000E+00  0.00000000E+00
  0.00000000E+00  0.00000000E+00  0.00000000E+00
  0.00000000E+00  0.00000000E+00  0.00000000E+00
  0.00000000E+00  0.00000000E+00  0.00000000E+00
  0.00000000E+00  0.00000000E+00  0.00000000E+00
  0.00000000E+00  0.00000000E+00  0.00000000E+00
  0.00000000E+00  0.00000000E+00  0.00000000E+00
  0.00000000E+00  0.00000000E+00  0.00000000E+00
  0.00000000E+00  0.00000000E+00  0.00000000E+00
  0.00000000E+00  0.00000000E+00  0.00000000E+00
