FCC Cu                                  
   1.00000000000000     
     2.5667977333000001    0.0000000000000000    0.0000000000000000
     1.2833988667000000    2.2229120434000000    0.0000000000000000
     0.0000000000000000    0.0000000000000000   25.4789076899999998
   Cu
     6
Selective dynamics
Direct
  0.0000000000000000  0.0000000000000000  0.0000000000000000   F   F   F
  0.3333333334931865  0.3333333332733517  0.0822555489230226   F   F   F
  0.6666666665967824  0.6666666665467034  0.1616801949983410   T   T   T
 -0.0000000000000000  0.0000000000000000  0.2417472370674930   T   T   T
  0.3333333334931865  0.3333333332733517  0.3215011513807994   T   T   T
  0.6666666665967824  0.6666666665467034  0.4003342700454521   T   T   T
 
  0.00000000E+00  0.00000000E+00  0.00000000E+00
  0.00000000E+00  0.00000000E+00  0.00000000E+00
  0.00000000E+00  0.00000000E+00  0.00000000E+00
  0.00000000E+00  0.00000000E+00  0.00000000E+00
  0.00000000E+00  0.00000000E+00  0.00000000E+00
  0.00000000E+00  0.00000000E+00  0.00000000E+00
