FCC Cu                                  
   1.00000000000000     
     2.5667977333000001    0.0000000000000000    0.0000000000000000
     1.2833988667000000    2.2229120434000000    0.0000000000000000
     0.0000000000000000    0.0000000000000000   25.4789076899999998
   Cu
     6
Selective dynamics
Cartesian
0.0 0.0 0.0
1.2833988672821328 0.7409706809999994 2.095781537999972
2.5667977330642655 1.4819413619999988 4.1194347636639295
-0.0 0.0 6.1594555375552
1.2833988672821328 0.7409706809999994 8.191498158260103
2.5667977330642655 1.4819413619999988 10.200079911631606
