FCC Cu                                  
   1.00000000000000     
     7.2600002289000001    0.0000000000000000    0.0000000000000000
     0.0000000000000000    5.1335954666000001    0.0000000000000000
     0.0000000000000000    0.0000000000000000   23.9837913512999990
   Cu   H 
    32     2
Selective dynamics
Direct
  0.0000000000000000  0.0000000000000000  0.0000000000000000   F   F   F
  0.0000000000000000  0.4999999999415579  0.0000000000000000   F   F   F
  0.4999999999380194  0.0000000000000000  0.0000000000000000   F   F   F
  0.4999999999380194  0.4999999999415579  0.0000000000000000   F   F   F
  0.2499999999690061  0.2500000000681766  0.0535110904777980   F   F   F
  0.2499999999690061  0.7500000000097415  0.0535110904777980   F   F   F
  0.7499999999070255  0.2500000000681766  0.0535110904777980   F   F   F
  0.7499999999070255  0.7500000000097415  0.0535110904777980   F   F   F
  0.0000000000000000  0.0000000000000000  0.1054137052072122   F   F   F
  0.0000000000000000  0.4999999999415579  0.1054137052072122   F   F   F
  0.4999999999380194  0.0000000000000000  0.1054137052072122   F   F   F
  0.4999999999380194  0.4999999999415579  0.1054137052072122   F   F   F
  0.2499999999690061  0.2508117812350021  0.1571599476763745   T   T   T
  0.2499999999690061  0.7507705098812982  0.1572146977382551   T   T   T
  0.7499999999070255  0.2507693809940467  0.1576215862137723   T   T   T
  0.7499999999070255  0.7507786704373174  0.1580124392462894   T   T   T
 -0.0002038062429322  0.0013802620606624  0.2088845472141878   T   T   T
 -0.0003177603826116  0.5015276281613670  0.2088977131112032   T   T   T
  0.5002038061809515  0.0013802620606624  0.2088845472141878   T   T   T
  0.5003177603206306  0.5015276281613670  0.2088977131112032   T   T   T
  0.2499999999690061  0.2521183009438547  0.2594204018793276   T   T   T
  0.2499999999690061  0.7519756891696774  0.2595143644817963   T   T   T
  0.7499999999070255  0.2518256558435590  0.2599665519713207   T   T   T
  0.7499999999070255  0.7521605568661680  0.2616849767249734   T   T   T
  0.0010757284910114  0.0031754078866991  0.3142505228836756   T   T   T
  0.0011249059479636  0.5027738950029584  0.3143651998374615   T   T   T
  0.4989242714470081  0.0031754078866991  0.3142505228836756   T   T   T
  0.4988750939900559  0.5027738950029584  0.3143651998374615   T   T   T
  0.2499999999690061  0.2529855100061810  0.3622171150492524   T   T   T
  0.2499999999690061  0.7531072380159632  0.3620101638376740   T   T   T
  0.7499999999070255  0.2546056577632083  0.3613195702326838   T   T   T
  0.7499999999070255  0.7539453754729069  0.3639260047329949   T   T   T
  0.7499999999070255  0.6878665865381753  0.4352599203304118   T   T   T
  0.7499999999070255  0.8457464931417785  0.4338772795807397   T   T   T
 
  0.00000000E+00  0.00000000E+00  0.00000000E+00
  0.00000000E+00  0.00000000E+00  0.00000000E+00
  0.00000000E+00  0.00000000E+00  0.00000000E+00
  0.00000000E+00  0.00000000E+00  0.00000000E+00
  0.00000000E+00  0.00000000E+00  0.00000000E+00
  0.00000000E+00  0.00000000E+00  0.00000000E+00
  0.00000000E+00  0.00000000E+00  0.00000000E+00
  0.00000000E+00  0.00000000E+00  0.00000000E+00
  0.00000000E+00  0.00000000E+00  0.00000000E+00
  0.00000000E+00  0.00000000E+00  0.00000000E+00
  0.00000000E+00  0.00000000E+00  0.00000000E+00
  0.00000000E+00  0.00000000E+00  0.00000000E+00
  0.00000000E+00  0.00000000E+00  0.00000000E+00
  0.00000000E+00  0.00000000E+00  0.00000000E+00
  0.00000000E+00  0.00000000E+00  0.00000000E+00
  0.00000000E+00  0.00000000E+00  0.00000000E+00
  0.00000000E+00  0.00000000E+00  0.00000000E+00
  0.00000000E+00  0.00000000E+00  0.00000000E+00
  0.00000000E+00  0.00000000E+00  0.00000000E+00
  0.00000000E+00  0.00000000E+00  0.00000000E+00
  0.00000000E+00  0.00000000E+00  0.00000000E+00
  0.00000000E+00  0.00000000E+00  0.00000000E+00
  0.00000000E+00  0.00000000E+00  0.00000000E+00
  0.00000000E+00  0.00000000E+00  0.00000000E+00
  0.00000000E+00  0.00000000E+00  0.00000000E+00
  0.00000000E+00  0.00000000E+00  0.00000000E+00
  0.00000000E+00  0.00000000E+00  0.00000000E+00
  0.00000000E+00  0.00000000E+00  0.00000000E+00
  0.00000000E+00  0.00000000E+00  0.00000000E+00
  0.00000000E+00  0.00000000E+00  0.00000000E+00
  0.00000000E+00  0.00000000E+00  0.00000000E+00
  0.00000000E+00  0.00000000E+00  0.00000000E+00
  0.00000000E+00  0.00000000E+00  0.00000000E+00
  0.00000000E+00  0.00000000E+00  0.00000000E+00
