FCC Cu                                  
   1.00000000000000     
     7.2600002289000001    0.0000000000000000    0.0000000000000000
     0.0000000000000000    5.1335954666000001    0.0000000000000000
     0.0000000000000000    0.0000000000000000   23.9837913512999990
   Cu   H 
    32     2
Selective dynamics
Direct
  0.0000000000000000  0.0000000000000000  0.0000000000000000   F   F   F
  0.0000000000000000  0.4999999999415579  0.0000000000000000   F   F   F
  0.4999999999380194  0.0000000000000000  0.0000000000000000   F   F   F
  0.4999999999380194  0.4999999999415579  0.0000000000000000   F   F   F
  0.2499999999690061  0.2500000000681766  0.0535110904777980   F   F   F
  0.2499999999690061  0.7500000000097415  0.0535110904777980   F   F   F
  0.7499999999070255  0.2500000000681766  0.0535110904777980   F   F   F
  0.7499999999070255  0.7500000000097415  0.0535110904777980   F   F   F
  0.0000000000000000  0.0000000000000000  0.1054137052072122   F   F   F
  0.0000000000000000  0.4999999999415579  0.1054137052072122   F   F   F
  0.4999999999380194  0.0000000000000000  0.1054137052072122   F   F   F
  0.4999999999380194  0.4999999999415579  0.1054137052072122   F   F   F
  0.2500589411508196  0.2497197167405101  0.1572703486586701   T   T   T
  0.2499661982264616  0.7498781590154046  0.1572952680574321   T   T   T
  0.7499410587252119  0.2497197167405101  0.1572703486586701   T   T   T
  0.7500338016495698  0.7498781590154046  0.1572952680574321   T   T   T
  0.0000000000000000 -0.0004580717842024  0.2087504639983641   T   T   T
  0.0000000000000000  0.4996508788494779  0.2087735983743565   T   T   T
  0.4999999999380194 -0.0004699284718749  0.2089066686634385   T   T   T
  0.4999999999380194  0.4995890921758478  0.2088728227880673   T   T   T
  0.2500904061828600  0.2492934761221877  0.2596448980175436   T   T   T
  0.2497865738910076  0.7494470829363972  0.2596940311820736   T   T   T
  0.7499095936931713  0.2492934761221877  0.2596448980175436   T   T   T
  0.7502134259850243  0.7494470829363972  0.2596940311820736   T   T   T
  0.0000000000000000 -0.0010703050612877  0.3144472327453385   T   T   T
  0.0000000000000000  0.4991404086772274  0.3143689520729674   T   T   T
  0.4999999999380194 -0.0009070166734744  0.3145619192877648   T   T   T
  0.4999999999380194  0.4989339688110344  0.3146023853338317   T   T   T
  0.2501161154004253  0.2486391324056452  0.3620109953266866   T   T   T
  0.2501212069114961  0.7489304907275419  0.3620699564517003   T   T   T
  0.7498838844756062  0.2486391324056452  0.3620109953266866   T   T   T
  0.7498787929645353  0.7489304907275419  0.3620699564517003   T   T   T
  0.9999999999449045  0.5688794632361905  0.4577019734667836   T   T   T
  0.9999999999449045  0.6342191134441300  0.4859847588135789   T   T   T
 
  0.00000000E+00  0.00000000E+00  0.00000000E+00
  0.00000000E+00  0.00000000E+00  0.00000000E+00
  0.00000000E+00  0.00000000E+00  0.00000000E+00
  0.00000000E+00  0.00000000E+00  0.00000000E+00
  0.00000000E+00  0.00000000E+00  0.00000000E+00
  0.00000000E+00  0.00000000E+00  0.00000000E+00
  0.00000000E+00  0.00000000E+00  0.00000000E+00
  0.00000000E+00  0.00000000E+00  0.00000000E+00
  0.00000000E+00  0.00000000E+00  0.00000000E+00
  0.00000000E+00  0.00000000E+00  0.00000000E+00
  0.00000000E+00  0.00000000E+00  0.00000000E+00
  0.00000000E+00  0.00000000E+00  0.00000000E+00
  0.00000000E+00  0.00000000E+00  0.00000000E+00
  0.00000000E+00  0.00000000E+00  0.00000000E+00
  0.00000000E+00  0.00000000E+00  0.00000000E+00
  0.00000000E+00  0.00000000E+00  0.00000000E+00
  0.00000000E+00  0.00000000E+00  0.00000000E+00
  0.00000000E+00  0.00000000E+00  0.00000000E+00
  0.00000000E+00  0.00000000E+00  0.00000000E+00
  0.00000000E+00  0.00000000E+00  0.00000000E+00
  0.00000000E+00  0.00000000E+00  0.00000000E+00
  0.00000000E+00  0.00000000E+00  0.00000000E+00
  0.00000000E+00  0.00000000E+00  0.00000000E+00
  0.00000000E+00  0.00000000E+00  0.00000000E+00
  0.00000000E+00  0.00000000E+00  0.00000000E+00
  0.00000000E+00  0.00000000E+00  0.00000000E+00
  0.00000000E+00  0.00000000E+00  0.00000000E+00
  0.00000000E+00  0.00000000E+00  0.00000000E+00
  0.00000000E+00  0.00000000E+00  0.00000000E+00
  0.00000000E+00  0.00000000E+00  0.00000000E+00
  0.00000000E+00  0.00000000E+00  0.00000000E+00
  0.00000000E+00  0.00000000E+00  0.00000000E+00
  0.00000000E+00  0.00000000E+00  0.00000000E+00
  0.00000000E+00  0.00000000E+00  0.00000000E+00
