FCC Cu                                  
   1.00000000000000     
     3.6300001144000000    0.0000000000000000    0.0000000000000000
     0.0000000000000000    3.6300001144000000    0.0000000000000000
     0.0000000000000000    0.0000000000000000   27.7049999237000009
   Cu   H 
    16     2
Direct
  0.0000000000000000  0.0000000000000000  0.0003273446269983
  0.4999999999449045  0.4999999999449045  0.0003303742337131
  0.0000000000000000  0.4999999999449045  0.0635458428870375
  0.4999999999449045  0.0000000000000000  0.0635458428870375
  0.0000000000000000 -0.0000000000000000  0.1267212896206086
  0.4999999999449045  0.4999999999449045  0.1267083688586430
  0.0000000000000000  0.4999999999449045  0.1894825678704780
  0.4999999999449045 -0.0000000000000000  0.1894825678704780
  0.0000000000000000  0.0000000000000000  0.2512425222341467
  0.4999999999449045  0.4999999999449045  0.2512471010765872
  0.0000000000000000  0.4999999999449045  0.3139908119197486
  0.4999999999449045 -0.0000000000000000  0.3139908119197486
  0.0000000000000000 -0.0000000000000000  0.3771308437122894
  0.4999999999449045  0.4999999999449045  0.3774616564384008
  0.0000000000000000  0.4999999999449045  0.4396933918744536
  0.4999999999449045 -0.0000000000000000  0.4396933918744536
  0.9999999998898090  0.9999999998897948  0.5224171123738636
  0.9999999998898090  0.9999999998897948  0.5498715395208351
 
  0.00000000E+00  0.00000000E+00  0.00000000E+00
  0.00000000E+00  0.00000000E+00  0.00000000E+00
  0.00000000E+00  0.00000000E+00  0.00000000E+00
  0.00000000E+00  0.00000000E+00  0.00000000E+00
  0.00000000E+00  0.00000000E+00  0.00000000E+00
  0.00000000E+00  0.00000000E+00  0.00000000E+00
  0.00000000E+00  0.00000000E+00  0.00000000E+00
  0.00000000E+00  0.00000000E+00  0.00000000E+00
  0.00000000E+00  0.00000000E+00  0.00000000E+00
  0.00000000E+00  0.00000000E+00  0.00000000E+00
  0.00000000E+00  0.00000000E+00  0.00000000E+00
  0.00000000E+00  0.00000000E+00  0.00000000E+00
  0.00000000E+00  0.00000000E+00  0.00000000E+00
  0.00000000E+00  0.00000000E+00  0.00000000E+00
  0.00000000E+00  0.00000000E+00  0.00000000E+00
  0.00000000E+00  0.00000000E+00  0.00000000E+00
  0.00000000E+00  0.00000000E+00  0.00000000E+00
  0.00000000E+00  0.00000000E+00  0.00000000E+00
