FCC Cu                                  
   1.00000000000000     
     7.2600002289000001    0.0000000000000000    0.0000000000000000
     0.0000000000000000    7.2600002289000001    0.0000000000000000
     0.0000000000000000    0.0000000000000000   24.0749999999999993
   Cu
    48
Selective dynamics
Direct
  0.0000000000000000  0.0000000000000000  0.0000000000000000   F   F   F
  0.0000000000000000  0.4999999999380194  0.0000000000000000   F   F   F
  0.4999999999380194  0.0000000000000000  0.0000000000000000   F   F   F
  0.4999999999380194  0.4999999999380194  0.0000000000000000   F   F   F
  0.2499999999690061  0.2499999999690061  0.0000000000000000   F   F   F
  0.2499999999690061  0.7499999999070255  0.0000000000000000   F   F   F
  0.7499999999070255  0.2499999999690061  0.0000000000000000   F   F   F
  0.7499999999070255  0.7499999999070255  0.0000000000000000   F   F   F
  0.0000000000000000  0.2499999999690061  0.0753894091796496   F   F   F
  0.0000000000000000  0.7499999999070255  0.0753894091796496   F   F   F
  0.4999999999380194  0.2499999999690061  0.0753894091796496   F   F   F
  0.4999999999380194  0.7499999999070255  0.0753894091796496   F   F   F
  0.2499999999690061  0.0000000000000000  0.0753894091796496   F   F   F
  0.2499999999690061  0.4999999999380194  0.0753894091796496   F   F   F
  0.7499999999070255  0.0000000000000000  0.0753894091796496   F   F   F
  0.7499999999070255  0.4999999999380194  0.0753894091796496   F   F   F
 -0.0000000000000000  0.0000000000000000  0.1480425365143498   T   T   T
  0.0000000000000000  0.4999999999380194  0.1480425365143498   T   T   T
  0.4999999999380194  0.0000000000000000  0.1480425365143498   T   T   T
  0.4999999999380194  0.4999999999380194  0.1480425365143498   T   T   T
  0.2499999999690061  0.2499999999690061  0.1480425365143498   T   T   T
  0.2499999999690061  0.7499999999070255  0.1480425365143498   T   T   T
  0.7499999999070255  0.2499999999690061  0.1480425365143498   T   T   T
  0.7499999999070255  0.7499999999070255  0.1480425365143498   T   T   T
 -0.0000000000000000  0.2499999999690061  0.2206524215050442   T   T   T
  0.0000000000000000  0.7499999999070255  0.2206524215050442   T   T   T
  0.4999999999380194  0.2499999999690061  0.2206524215050442   T   T   T
  0.4999999999380194  0.7499999999070255  0.2206524215050442   T   T   T
  0.2499999999690061  0.0000000000000000  0.2206524215050442   T   T   T
  0.2499999999690061  0.4999999999380194  0.2206524215050442   T   T   T
  0.7499999999070255 -0.0000000000000000  0.2206524215050442   T   T   T
  0.7499999999070255  0.4999999999380194  0.2206524215050442   T   T   T
 -0.0000000000000000 -0.0000000000000000  0.2935430600572332   T   T   T
  0.0000000000000000  0.4999999999380194  0.2935430600572332   T   T   T
  0.4999999999380194 -0.0000000000000000  0.2935430600572332   T   T   T
  0.4999999999380194  0.4999999999380194  0.2935430600572332   T   T   T
  0.2499999999690061  0.2499999999690061  0.2935430600572332   T   T   T
  0.2499999999690061  0.7499999999070255  0.2935430600572332   T   T   T
  0.7499999999070255  0.2499999999690061  0.2935430600572332   T   T   T
  0.7499999999070255  0.7499999999070255  0.2935430600572332   T   T   T
 -0.0000000000000000  0.2499999999690061  0.3648066530956494   T   T   T
 -0.0000000000000000  0.7499999999070255  0.3648066530956494   T   T   T
  0.4999999999380194  0.2499999999690061  0.3648066530956494   T   T   T
  0.4999999999380194  0.7499999999070255  0.3648066530956494   T   T   T
  0.2499999999690061  0.0000000000000000  0.3648066530956494   T   T   T
  0.2499999999690061  0.4999999999380194  0.3648066530956494   T   T   T
  0.7499999999070255  0.0000000000000000  0.3648066530956494   T   T   T
  0.7499999999070255  0.4999999999380194  0.3648066530956494   T   T   T
 
  0.00000000E+00  0.00000000E+00  0.00000000E+00
  0.00000000E+00  0.00000000E+00  0.00000000E+00
  0.00000000E+00  0.00000000E+00  0.00000000E+00
  0.00000000E+00  0.00000000E+00  0.00000000E+00
  0.00000000E+00  0.00000000E+00  0.00000000E+00
  0.00000000E+00  0.00000000E+00  0.00000000E+00
  0.00000000E+00  0.00000000E+00  0.00000000E+00
  0.00000000E+00  0.00000000E+00  0.00000000E+00
  0.00000000E+00  0.00000000E+00  0.00000000E+00
  0.00000000E+00  0.00000000E+00  0.00000000E+00
  0.00000000E+00  0.00000000E+00  0.00000000E+00
  0.00000000E+00  0.00000000E+00  0.00000000E+00
  0.00000000E+00  0.00000000E+00  0.00000000E+00
  0.00000000E+00  0.00000000E+00  0.00000000E+00
  0.00000000E+00  0.00000000E+00  0.00000000E+00
  0.00000000E+00  0.00000000E+00  0.00000000E+00
  0.00000000E+00  0.00000000E+00  0.00000000E+00
  0.00000000E+00  0.00000000E+00  0.00000000E+00
  0.00000000E+00  0.00000000E+00  0.00000000E+00
  0.00000000E+00  0.00000000E+00  0.00000000E+00
  0.00000000E+00  0.00000000E+00  0.00000000E+00
  0.00000000E+00  0.00000000E+00  0.00000000E+00
  0.00000000E+00  0.00000000E+00  0.00000000E+00
  0.00000000E+00  0.00000000E+00  0.00000000E+00
  0.00000000E+00  0.00000000E+00  0.00000000E+00
  0.00000000E+00  0.00000000E+00  0.00000000E+00
  0.00000000E+00  0.00000000E+00  0.00000000E+00
  0.00000000E+00  0.00000000E+00  0.00000000E+00
  0.00000000E+00  0.00000000E+00  0.00000000E+00
  0.00000000E+00  0.00000000E+00  0.00000000E+00
  0.00000000E+00  0.00000000E+00  0.00000000E+00
  0.00000000E+00  0.00000000E+00  0.00000000E+00
  0.00000000E+00  0.00000000E+00  0.00000000E+00
  0.00000000E+00  0.00000000E+00  0.00000000E+00
  0.00000000E+00  0.00000000E+00  0.00000000E+00
  0.00000000E+00  0.00000000E+00  0.00000000E+00
  0.00000000E+00  0.00000000E+00  0.00000000E+00
  0.00000000E+00  0.00000000E+00  0.00000000E+00
  0.00000000E+00  0.00000000E+00  0.00000000E+00
  0.00000000E+00  0.00000000E+00  0.00000000E+00
  0.00000000E+00  0.00000000E+00  0.00000000E+00
  0.00000000E+00  0.00000000E+00  0.00000000E+00
  0.00000000E+00  0.00000000E+00  0.00000000E+00
  0.00000000E+00  0.00000000E+00  0.00000000E+00
  0.00000000E+00  0.00000000E+00  0.00000000E+00
  0.00000000E+00  0.00000000E+00  0.00000000E+00
  0.00000000E+00  0.00000000E+00  0.00000000E+00
  0.00000000E+00  0.00000000E+00  0.00000000E+00
