FCC Cu                                  
1.0
        7.2600002289         0.0000000000         0.0000000000
        0.0000000000         7.2600002289         0.0000000000
        0.0000000000         0.0000000000        24.0750007629
   Cu
   48
Cartesian
     0.000000000         0.000000000         0.000000000
     0.000000000         3.630000114         0.000000000
     3.630000114         0.000000000         0.000000000
     3.630000114         3.630000114         0.000000000
     1.815000057         1.815000057         0.000000000
     1.815000057         5.445000171         0.000000000
     5.445000171         1.815000057         0.000000000
     5.445000171         5.445000171         0.000000000
     0.000000000         1.815000057         1.815000084
     0.000000000         5.445000171         1.815000084
     3.630000114         1.815000057         1.815000084
     3.630000114         5.445000171         1.815000084
     1.815000057         0.000000000         1.815000084
     1.815000057         3.630000114         1.815000084
     5.445000171         0.000000000         1.815000084
     5.445000171         3.630000114         1.815000084
     0.000000000         0.000000000         3.564124180
     0.000000000         3.630000114         3.564124180
     3.630000114         0.000000000         3.564124180
     3.630000114         3.630000114         3.564124180
     1.815000057         1.815000057         3.564124180
     1.815000057         5.445000171         3.564124180
     5.445000171         1.815000057         3.564124180
     5.445000171         5.445000171         3.564124180
     0.000000000         1.815000057         5.312207216
     0.000000000         5.445000171         5.312207216
     3.630000114         1.815000057         5.312207216
     3.630000114         5.445000171         5.312207216
     1.815000057         0.000000000         5.312207216
     1.815000057         3.630000114         5.312207216
     5.445000171         0.000000000         5.312207216
     5.445000171         3.630000114         5.312207216
     0.000000000         0.000000000         7.067049395
     0.000000000         3.630000114         7.067049395
     3.630000114         0.000000000         7.067049395
     3.630000114         3.630000114         7.067049395
     1.815000057         1.815000057         7.067049395
     1.815000057         5.445000171         7.067049395
     5.445000171         1.815000057         7.067049395
     5.445000171         5.445000171         7.067049395
     0.000000000         1.815000057         8.782720452
     0.000000000         5.445000171         8.782720452
     3.630000114         1.815000057         8.782720452
     3.630000114         5.445000171         8.782720452
     1.815000057         0.000000000         8.782720452
     1.815000057         3.630000114         8.782720452
     5.445000171         0.000000000         8.782720452
     5.445000171         3.630000114         8.782720452
