FCC Cu                                  
   1.00000000000000     
     7.2600002289000001    0.0000000000000000    0.0000000000000000
     0.0000000000000000    7.2600002289000001    0.0000000000000000
     0.0000000000000000    0.0000000000000000   27.7049999237000009
   Cu   H 
    64     2
Direct
  0.0000000000000000 -0.0015869205127083  0.0079061986616349
  0.0000000000000000  0.4985081040887202  0.0079092295118668
  0.4999999999380194 -0.0015068790671563  0.0079129048131139
  0.4999999999380194  0.4984402686946995  0.0079143338634362
  0.2500727013325048  0.2484918527616096  0.0079135373263181
  0.2500082732608617  0.7484261055909296  0.0079248082222111
  0.7499272985435270  0.2484918527616096  0.0079135373263181
  0.7499917266151696  0.7484261055909296  0.0079248082222111
  0.0000000000000000  0.2484794193573277  0.0702290536313647
  0.0000000000000000  0.7484668616949183  0.0702089019588704
  0.4999999999380194  0.2484474828493951  0.0701951347066199
  0.4999999999380194  0.7485908534574163  0.0702193136714587
  0.2500102422319813 -0.0015225624312589  0.0702179979529942
  0.2499336286813109  0.4984700182843386  0.0701986012660794
  0.7499897576440502 -0.0015225624312589  0.0702179979529942
  0.7500663711947206  0.4984700182843386  0.0701986012660794
  0.0000000000000000 -0.0015315510919080  0.1338354002378017
  0.0000000000000000  0.4986421877657782  0.1338326110784609
  0.4999999999380194 -0.0014085026951083  0.1338338769391400
  0.4999999999380194  0.4985385381624191  0.1337426951758596
  0.2501348191770797  0.2486664175240979  0.1338316860938274
  0.2500207474360572  0.7485141316479629  0.1338142914162651
  0.7498651806989519  0.2486664175240979  0.1338316860938274
  0.7499792524399747  0.7485141316479629  0.1338142914162651
  0.0000000000000000  0.2487604847056084  0.1965767199663445
  0.0000000000000000  0.7487083610374298  0.1966807912266721
  0.4999999999380194  0.2488931955323092  0.1966876903467101
  0.4999999999380194  0.7486015615397773  0.1966408289884342
  0.2500384670816182 -0.0013304736043356  0.1966248238698134
  0.2501683765430435  0.4988193663081625  0.1966495138199435
  0.7499615327944142 -0.0013304736043356  0.1966248238698134
  0.7498316233329881  0.4988193663081625  0.1966495138199435
  0.0000000000000000 -0.0011535402879327  0.2591054799412058
  0.0000000000000000  0.4986588302837343  0.2590356044201336
  0.4999999999380194 -0.0013127970048379  0.2590480553835631
  0.4999999999380194  0.4986780874486920  0.2592221689318926
  0.2498976782653521  0.2487150131935534  0.2590924041043711
  0.2499815438649551  0.7488147203461542  0.2591476078551557
  0.7501023216106792  0.2487150131935534  0.2590924041043711
  0.7500184560110760  0.7488147203461542  0.2591476078551557
  0.0000000000000000  0.2488008150683323  0.3219665389756655
  0.0000000000000000  0.7488391574298625  0.3219379743736462
  0.4999999999380194  0.2485566024441039  0.3219116176197763
  0.4999999999380194  0.7488953390031681  0.3219050144503955
  0.2500304167333251 -0.0011622875457925  0.3219427351755199
  0.2498803772521107  0.4988088577724749  0.3218906462823705
  0.7499695831427068 -0.0011622875457925  0.3219427351755199
  0.7501196226239206  0.4988088577724749  0.3218906462823705
  0.0000000000000000 -0.0011822794950099  0.3856029479647053
  0.0000000000000000  0.4988508398610388  0.3854938898147366
  0.4999999999380194 -0.0013254553612833  0.3855896102713683
  0.4999999999380194  0.4987116924292722  0.3855125473432172
  0.2499800174511699  0.2486954967307252  0.3855599851793673
  0.2499893850149082  0.7489089520596669  0.3856010586635443
  0.7500199824248620  0.2486954967307252  0.3855599851793673
  0.7500106148611229  0.7489089520596669  0.3856010586635443
  0.0000000000000000  0.2486205613394017  0.4478829980567099
  0.0000000000000000  0.7487199312666987  0.4478224188276531
  0.4999999999380194  0.2483599341219623  0.4476968548858543
  0.4999999999380194  0.7492979481466044  0.4476627617219846
  0.2499838622255281 -0.0011318153363117  0.4478831192499708
  0.2492641799224519  0.4983448977648203  0.4475412001659623
  0.7500161376505038 -0.0011318153363117  0.4478831192499708
  0.7507358199535796  0.4983448977648203  0.4475412001659623
  0.4999999999380194  0.5524588280673556  0.5274533934825917
  0.4999999999380194  0.6060832828802200  0.5510483451116869
 
  0.00000000E+00  0.00000000E+00  0.00000000E+00
  0.00000000E+00  0.00000000E+00  0.00000000E+00
  0.00000000E+00  0.00000000E+00  0.00000000E+00
  0.00000000E+00  0.00000000E+00  0.00000000E+00
  0.00000000E+00  0.00000000E+00  0.00000000E+00
  0.00000000E+00  0.00000000E+00  0.00000000E+00
  0.00000000E+00  0.00000000E+00  0.00000000E+00
  0.00000000E+00  0.00000000E+00  0.00000000E+00
  0.00000000E+00  0.00000000E+00  0.00000000E+00
  0.00000000E+00  0.00000000E+00  0.00000000E+00
  0.00000000E+00  0.00000000E+00  0.00000000E+00
  0.00000000E+00  0.00000000E+00  0.00000000E+00
  0.00000000E+00  0.00000000E+00  0.00000000E+00
  0.00000000E+00  0.00000000E+00  0.00000000E+00
  0.00000000E+00  0.00000000E+00  0.00000000E+00
  0.00000000E+00  0.00000000E+00  0.00000000E+00
  0.00000000E+00  0.00000000E+00  0.00000000E+00
  0.00000000E+00  0.00000000E+00  0.00000000E+00
  0.00000000E+00  0.00000000E+00  0.00000000E+00
  0.00000000E+00  0.00000000E+00  0.00000000E+00
  0.00000000E+00  0.00000000E+00  0.00000000E+00
  0.00000000E+00  0.00000000E+00  0.00000000E+00
  0.00000000E+00  0.00000000E+00  0.00000000E+00
  0.00000000E+00  0.00000000E+00  0.00000000E+00
  0.00000000E+00  0.00000000E+00  0.00000000E+00
  0.00000000E+00  0.00000000E+00  0.00000000E+00
  0.00000000E+00  0.00000000E+00  0.00000000E+00
  0.00000000E+00  0.00000000E+00  0.00000000E+00
  0.00000000E+00  0.00000000E+00  0.00000000E+00
  0.00000000E+00  0.00000000E+00  0.00000000E+00
  0.00000000E+00  0.00000000E+00  0.00000000E+00
  0.00000000E+00  0.00000000E+00  0.00000000E+00
  0.00000000E+00  0.00000000E+00  0.00000000E+00
  0.00000000E+00  0.00000000E+00  0.00000000E+00
  0.00000000E+00  0.00000000E+00  0.00000000E+00
  0.00000000E+00  0.00000000E+00  0.00000000E+00
  0.00000000E+00  0.00000000E+00  0.00000000E+00
  0.00000000E+00  0.00000000E+00  0.00000000E+00
  0.00000000E+00  0.00000000E+00  0.00000000E+00
  0.00000000E+00  0.00000000E+00  0.00000000E+00
  0.00000000E+00  0.00000000E+00  0.00000000E+00
  0.00000000E+00  0.00000000E+00  0.00000000E+00
  0.00000000E+00  0.00000000E+00  0.00000000E+00
  0.00000000E+00  0.00000000E+00  0.00000000E+00
  0.00000000E+00  0.00000000E+00  0.00000000E+00
  0.00000000E+00  0.00000000E+00  0.00000000E+00
  0.00000000E+00  0.00000000E+00  0.00000000E+00
  0.00000000E+00  0.00000000E+00  0.00000000E+00
  0.00000000E+00  0.00000000E+00  0.00000000E+00
  0.00000000E+00  0.00000000E+00  0.00000000E+00
  0.00000000E+00  0.00000000E+00  0.00000000E+00
  0.00000000E+00  0.00000000E+00  0.00000000E+00
  0.00000000E+00  0.00000000E+00  0.00000000E+00
  0.00000000E+00  0.00000000E+00  0.00000000E+00
  0.00000000E+00  0.00000000E+00  0.00000000E+00
  0.00000000E+00  0.00000000E+00  0.00000000E+00
  0.00000000E+00  0.00000000E+00  0.00000000E+00
  0.00000000E+00  0.00000000E+00  0.00000000E+00
  0.00000000E+00  0.00000000E+00  0.00000000E+00
  0.00000000E+00  0.00000000E+00  0.00000000E+00
  0.00000000E+00  0.00000000E+00  0.00000000E+00
  0.00000000E+00  0.00000000E+00  0.00000000E+00
  0.00000000E+00  0.00000000E+00  0.00000000E+00
  0.00000000E+00  0.00000000E+00  0.00000000E+00
  0.00000000E+00  0.00000000E+00  0.00000000E+00
  0.00000000E+00  0.00000000E+00  0.00000000E+00
