FCC Cu                                  
   1.00000000000000     
     3.6300001144000000    0.0000000000000000    0.0000000000000000
     0.0000000000000000    2.5667977333000001    0.0000000000000000
     0.0000000000000000    0.0000000000000000   22.7003929999999983
   Cu
     7
Selective dynamics
Cartesian
0.0 0.0 0.0
1.8150000570000033 1.283398866999991 1.2833988670000536
0.0 0.0 2.5007120151656013
1.8150000570000033 1.283398866999991 3.7831727841496083
0.0 0.0 5.031222950304435
1.8150000570000033 1.283398866999991 6.341613285312463
0.0 0.0 7.448324519802911
