FCC Cu                                  
   1.00000000000000     
     3.6300001144000000    0.0000000000000000    0.0000000000000000
     0.0000000000000000    3.6300001144000000    0.0000000000000000
     0.0000000000000000    0.0000000000000000   27.7049999237000009
   Cu   H 
    16     2
Direct
  0.0000000000000000 -0.0029457765571478 -0.0022372717364610
  0.4999999999449045  0.4969006850233225 -0.0022246547289027
  0.0000000000000000  0.4972096643817919  0.0608336402355803
  0.4999999999449045 -0.0025910859773760  0.0608375492814361
  0.0000000000000000 -0.0024975972361413  0.1241828573273153
  0.4999999999449045  0.4974520594245164  0.1241781036629414
  0.0000000000000000  0.4973115412301209  0.1871384886873704
  0.4999999999449045 -0.0023050904662573  0.1871435110094950
  0.0000000000000000 -0.0024985212098956  0.2491648692585934
  0.4999999999449045  0.4976970072704142  0.2492356112814657
  0.0000000000000000  0.4981060613736401  0.3121159051912031
  0.4999999999449045 -0.0020641177976824  0.3121084916080546
  0.0000000000000000 -0.0010446420562387  0.3754582207775782
  0.4999999999449045  0.4980804365941408  0.3756083578129856
  0.0000000000000000  0.4989964883562304  0.4383271238647432
  0.4999999999449045 -0.0019162063439039  0.4384510138350002
  0.9999999998898090  0.0891353940612858  0.5267825883014993
  0.9999999998898090  0.1524833346646217  0.5528524285008692
 
  0.00000000E+00  0.00000000E+00  0.00000000E+00
  0.00000000E+00  0.00000000E+00  0.00000000E+00
  0.00000000E+00  0.00000000E+00  0.00000000E+00
  0.00000000E+00  0.00000000E+00  0.00000000E+00
  0.00000000E+00  0.00000000E+00  0.00000000E+00
  0.00000000E+00  0.00000000E+00  0.00000000E+00
  0.00000000E+00  0.00000000E+00  0.00000000E+00
  0.00000000E+00  0.00000000E+00  0.00000000E+00
  0.00000000E+00  0.00000000E+00  0.00000000E+00
  0.00000000E+00  0.00000000E+00  0.00000000E+00
  0.00000000E+00  0.00000000E+00  0.00000000E+00
  0.00000000E+00  0.00000000E+00  0.00000000E+00
  0.00000000E+00  0.00000000E+00  0.00000000E+00
  0.00000000E+00  0.00000000E+00  0.00000000E+00
  0.00000000E+00  0.00000000E+00  0.00000000E+00
  0.00000000E+00  0.00000000E+00  0.00000000E+00
  0.00000000E+00  0.00000000E+00  0.00000000E+00
  0.00000000E+00  0.00000000E+00  0.00000000E+00
