FCC Cu
1.0
3.6300001144         0.0000000000         0.0000000000
0.0000000000         2.5667977333         0.0000000000
0.0000000000         0.0000000000        23.9837913513
Cu O
8 1
Cartesian
0.0     0.0     0.0     F     F     F
1.815000057     1.283398867     1.283398829     F     F     F
0.0     0.0     2.510658683     F     F     F
1.815000057     1.283398867     3.787759096     T     T     T
0.0     0.0     5.053600465     T     T     T
1.815000057     1.283398867     6.305110381     T     T     T
0.0     0.0     7.605641959     T     T     T
1.815000057     1.283398867     8.746310726     T     T     T
3.630000114000003 3.850196600000009 10.23887049126061    T   T   T
