FCC Cu                                  
   1.00000000000000     
     3.6300001144000000    0.0000000000000000    0.0000000000000000
     0.0000000000000000    3.6300001144000000    0.0000000000000000
     0.0000000000000000    0.0000000000000000   22.2600000000000016
   Cu
    10
Selective dynamics
Direct
  0.0000000000000000  0.0000000000000000  0.0000000000000000   F   F   F
  0.4999999999449045  0.4999999999449045  0.0000000000000000   F   F   F
  0.0000000000000000  0.4999999999449045  0.0815363893081766   F   F   F
  0.4999999999449045  0.0000000000000000  0.0815363893081766   F   F   F
  0.0000000000000000 -0.0000000000000000  0.1610647313996570   T   T   T
  0.4999999999449045  0.4999999999449045  0.1610647313996570   T   T   T
 -0.0000000000000000  0.4999999999449045  0.2406950858361661   T   T   T
  0.4999999999449045 -0.0000000000000000  0.2406950858361661   T   T   T
 -0.0000000000000000  0.0000000000000000  0.3189893775533149   T   T   T
  0.4999999999449045  0.4999999999449045  0.3189893775533149   T   T   T
 
  0.00000000E+00  0.00000000E+00  0.00000000E+00
  0.00000000E+00  0.00000000E+00  0.00000000E+00
  0.00000000E+00  0.00000000E+00  0.00000000E+00
  0.00000000E+00  0.00000000E+00  0.00000000E+00
  0.00000000E+00  0.00000000E+00  0.00000000E+00
  0.00000000E+00  0.00000000E+00  0.00000000E+00
  0.00000000E+00  0.00000000E+00  0.00000000E+00
  0.00000000E+00  0.00000000E+00  0.00000000E+00
  0.00000000E+00  0.00000000E+00  0.00000000E+00
  0.00000000E+00  0.00000000E+00  0.00000000E+00
