FCC Cu                                  
1.0
        3.6300001144         0.0000000000         0.0000000000
        0.0000000000         3.6300001144         0.0000000000
	0.0000000000         0.0000000000 	  22.260000
   Cu
10
Selective dynamics
Cartesian
0	0	0	F	F	F
1.815000057	1.815000057	0	F	F	F
0	1.815000057	1.815000026	F	F	F
1.815000057	0	1.815000026	F	F	F
0	0	3.630000051	T	T	T
1.815000057	1.815000057	3.630000051	T	T	T
0	1.815000057	5.445000078	T	T	T
1.815000057	0	5.445000078	T	T	T
0	0	7.260000104	T	T	T
1.815000057	1.815000057	7.260000104	T	T	T

