FCC Cu                                  
   1.00000000000000     
     7.2600002289000001    0.0000000000000000    0.0000000000000000
     0.0000000000000000    5.1335954666000001    0.0000000000000000
     0.0000000000000000    0.0000000000000000   23.9837913512999990
   Cu   H 
    32     2
Selective dynamics
Direct
  0.0000000000000000  0.0000000000000000  0.0000000000000000   F   F   F
  0.0000000000000000  0.4999999999415579  0.0000000000000000   F   F   F
  0.4999999999380194  0.0000000000000000  0.0000000000000000   F   F   F
  0.4999999999380194  0.4999999999415579  0.0000000000000000   F   F   F
  0.2499999999690061  0.2500000000681766  0.0535110904777980   F   F   F
  0.2499999999690061  0.7500000000097415  0.0535110904777980   F   F   F
  0.7499999999070255  0.2500000000681766  0.0535110904777980   F   F   F
  0.7499999999070255  0.7500000000097415  0.0535110904777980   F   F   F
  0.0000000000000000  0.0000000000000000  0.1054137052072122   F   F   F
  0.0000000000000000  0.4999999999415579  0.1054137052072122   F   F   F
  0.4999999999380194  0.0000000000000000  0.1054137052072122   F   F   F
  0.4999999999380194  0.4999999999415579  0.1054137052072122   F   F   F
  0.2500080874876676  0.2500000000681766  0.1570933481648887   T   T   T
  0.2500373827434601  0.7500000000097415  0.1571064602797315   T   T   T
  0.7499919123883638  0.2500000000681766  0.1570933481648887   T   T   T
  0.7499626171325716  0.7500000000097415  0.1571064602797315   T   T   T
 -0.0000000000000000 -0.0001917947652808  0.2085995201794462   T   T   T
 -0.0000000000000000  0.5001917947068389  0.2085995201794462   T   T   T
  0.4999999999380194  0.0001908367849456  0.2084941812895381   T   T   T
  0.4999999999380194  0.4998091631566124  0.2084941812895381   T   T   T
  0.2498943931545959  0.2500000000681766  0.2592222162796102   T   T   T
  0.2502992234088390  0.7500000000097415  0.2592698725348001   T   T   T
  0.7501056067214356  0.2500000000681766  0.2592222162796102   T   T   T
  0.7497007764671926  0.7500000000097415  0.2592698725348001   T   T   T
 -0.0000000000000000 -0.0000133240023326  0.3139034826878515   T   T   T
 -0.0000000000000000  0.5000133239438908  0.3139034826878515   T   T   T
  0.4999999999380194  0.0000203412820791  0.3139667164422828   T   T   T
  0.4999999999380194  0.4999796586594788  0.3139667164422828   T   T   T
  0.2493111034408755  0.2500000000681766  0.3614794062633395   T   T   T
  0.2494055409462632  0.7500000000097415  0.3614369258748344   T   T   T
  0.7506888964351559  0.2500000000681766  0.3614794062633395   T   T   T
  0.7505944589297685  0.7500000000097415  0.3614369258748344   T   T   T
  0.4999999999380194  0.7500000000097415  0.4483430288922126   T   T   T
  0.4999999999380194  0.7500000000097415  0.4799622012650920   T   T   T
 
  0.00000000E+00  0.00000000E+00  0.00000000E+00
  0.00000000E+00  0.00000000E+00  0.00000000E+00
  0.00000000E+00  0.00000000E+00  0.00000000E+00
  0.00000000E+00  0.00000000E+00  0.00000000E+00
  0.00000000E+00  0.00000000E+00  0.00000000E+00
  0.00000000E+00  0.00000000E+00  0.00000000E+00
  0.00000000E+00  0.00000000E+00  0.00000000E+00
  0.00000000E+00  0.00000000E+00  0.00000000E+00
  0.00000000E+00  0.00000000E+00  0.00000000E+00
  0.00000000E+00  0.00000000E+00  0.00000000E+00
  0.00000000E+00  0.00000000E+00  0.00000000E+00
  0.00000000E+00  0.00000000E+00  0.00000000E+00
  0.00000000E+00  0.00000000E+00  0.00000000E+00
  0.00000000E+00  0.00000000E+00  0.00000000E+00
  0.00000000E+00  0.00000000E+00  0.00000000E+00
  0.00000000E+00  0.00000000E+00  0.00000000E+00
  0.00000000E+00  0.00000000E+00  0.00000000E+00
  0.00000000E+00  0.00000000E+00  0.00000000E+00
  0.00000000E+00  0.00000000E+00  0.00000000E+00
  0.00000000E+00  0.00000000E+00  0.00000000E+00
  0.00000000E+00  0.00000000E+00  0.00000000E+00
  0.00000000E+00  0.00000000E+00  0.00000000E+00
  0.00000000E+00  0.00000000E+00  0.00000000E+00
  0.00000000E+00  0.00000000E+00  0.00000000E+00
  0.00000000E+00  0.00000000E+00  0.00000000E+00
  0.00000000E+00  0.00000000E+00  0.00000000E+00
  0.00000000E+00  0.00000000E+00  0.00000000E+00
  0.00000000E+00  0.00000000E+00  0.00000000E+00
  0.00000000E+00  0.00000000E+00  0.00000000E+00
  0.00000000E+00  0.00000000E+00  0.00000000E+00
  0.00000000E+00  0.00000000E+00  0.00000000E+00
  0.00000000E+00  0.00000000E+00  0.00000000E+00
  0.00000000E+00  0.00000000E+00  0.00000000E+00
  0.00000000E+00  0.00000000E+00  0.00000000E+00
