FCC Cu                                  
   1.00000000000000     
     5.1335954666000001    0.0000000000000000    0.0000000000000000
     2.5667977333000001    4.4458240868000001    0.0000000000000000
     0.0000000000000000    0.0000000000000000   29.6704711914000008
   Cu   H 
    32     2
Direct
 -0.0002087456554269  0.0005842666204190 -0.0009461455930810
 -0.0003214538474292  0.5006429074416211 -0.0009438779890622
  0.4996244789765728  0.0005842666204190 -0.0009461455930810
  0.4996575266394120  0.5006849467406591 -0.0009643964042788
  0.1665071667510927  0.1669856666341750  0.0682768322923492
  0.1664719127375487  0.6670115162848670  0.0682768759449106
  0.6664650891221634  0.1670698217751496  0.0681996692954110
  0.6665165711918557  0.6670115162848670  0.0682768759449106
  0.3333548931597674  0.3332988992579687  0.1360837135844137
  0.3332923529186971  0.8334152941820818  0.1360947897989034
  0.8333462074069442  0.3332988992579687  0.1360837135844137
  0.8332439346302738  0.8335121306420581  0.1360973905964857
  0.0002048667069324 -0.0005660696646516  0.2043448367979248
  0.0003302388292325  0.4993395220882975  0.2043310071534735
  0.5003612028992843 -0.0005660696646516  0.2043448367979248
  0.5003531022364592  0.4992937955465650  0.2042898978796388
  0.1673202909479975  0.1653594182403652  0.2725571967230400
  0.1675327291442625  0.6651820882976501  0.2725253862848966
  0.6672827903876714  0.1654344192441340  0.2725290921651495
  0.6672851827723588  0.6651820882976501  0.2725253862848966
  0.3344040158737103  0.3312889355045628  0.3406981580386662
  0.3343301299400795  0.8313397401393170  0.3407033535721497
  0.8343070484464075  0.3312889355045628  0.3406981580386662
  0.8344539166452495  0.8310921666121055  0.3405816901340974
  0.0011343387627108 -0.0029818483932901  0.4084091016804077
  0.0013661581234470  0.4972676834998691  0.4085233586439986
  0.5018475095721443 -0.0029818483932901  0.4084091016804077
  0.5013702751977357  0.4972594496240119  0.4084476341108050
  0.1683967744608696  0.1632064512146210  0.4774864982760482
  0.1683665852397611  0.6638825850999941  0.4776764379961183
  0.6679684987839261  0.1640630024516241  0.4776227801725257
  0.6677508298745158  0.6638825850999941  0.4776764379961183
 -0.0154203627567087  0.5308407256757479  0.5694301694393907
  0.9384450910503502  0.6231098180616231  0.5907791128760187
 
  0.00000000E+00  0.00000000E+00  0.00000000E+00
  0.00000000E+00  0.00000000E+00  0.00000000E+00
  0.00000000E+00  0.00000000E+00  0.00000000E+00
  0.00000000E+00  0.00000000E+00  0.00000000E+00
  0.00000000E+00  0.00000000E+00  0.00000000E+00
  0.00000000E+00  0.00000000E+00  0.00000000E+00
  0.00000000E+00  0.00000000E+00  0.00000000E+00
  0.00000000E+00  0.00000000E+00  0.00000000E+00
  0.00000000E+00  0.00000000E+00  0.00000000E+00
  0.00000000E+00  0.00000000E+00  0.00000000E+00
  0.00000000E+00  0.00000000E+00  0.00000000E+00
  0.00000000E+00  0.00000000E+00  0.00000000E+00
  0.00000000E+00  0.00000000E+00  0.00000000E+00
  0.00000000E+00  0.00000000E+00  0.00000000E+00
  0.00000000E+00  0.00000000E+00  0.00000000E+00
  0.00000000E+00  0.00000000E+00  0.00000000E+00
  0.00000000E+00  0.00000000E+00  0.00000000E+00
  0.00000000E+00  0.00000000E+00  0.00000000E+00
  0.00000000E+00  0.00000000E+00  0.00000000E+00
  0.00000000E+00  0.00000000E+00  0.00000000E+00
  0.00000000E+00  0.00000000E+00  0.00000000E+00
  0.00000000E+00  0.00000000E+00  0.00000000E+00
  0.00000000E+00  0.00000000E+00  0.00000000E+00
  0.00000000E+00  0.00000000E+00  0.00000000E+00
  0.00000000E+00  0.00000000E+00  0.00000000E+00
  0.00000000E+00  0.00000000E+00  0.00000000E+00
  0.00000000E+00  0.00000000E+00  0.00000000E+00
  0.00000000E+00  0.00000000E+00  0.00000000E+00
  0.00000000E+00  0.00000000E+00  0.00000000E+00
  0.00000000E+00  0.00000000E+00  0.00000000E+00
  0.00000000E+00  0.00000000E+00  0.00000000E+00
  0.00000000E+00  0.00000000E+00  0.00000000E+00
  0.00000000E+00  0.00000000E+00  0.00000000E+00
  0.00000000E+00  0.00000000E+00  0.00000000E+00
