FCC Cu                                  
   1.00000000000000     
    10.8900003433000006    0.0000000000000000    0.0000000000000000
     0.0000000000000000   10.8900003433000006    0.0000000000000000
     0.0000000000000000    0.0000000000000000   27.7049999237000009
   Cu
   144
Selective dynamics
Direct
  0.0000000000000000  0.0000000000000000  0.0000000000000000   F   F   F
  0.0000000000000000  0.3333333332935382  0.0000000000000000   F   F   F
  0.0000000000000000  0.6666666666789069  0.0000000000000000   F   F   F
  0.3333333332935382  0.0000000000000000  0.0000000000000000   F   F   F
  0.3333333332935382  0.3333333332935382  0.0000000000000000   F   F   F
  0.3333333332935382  0.6666666666789069  0.0000000000000000   F   F   F
  0.6666666666789069  0.0000000000000000  0.0000000000000000   F   F   F
  0.6666666666789069  0.3333333332935382  0.0000000000000000   F   F   F
  0.6666666666789069  0.6666666666789069  0.0000000000000000   F   F   F
  0.1666666666467691  0.1666666666467691  0.0000000000000000   F   F   F
  0.1666666666467691  0.4999999999403144  0.0000000000000000   F   F   F
  0.1666666666467691  0.8333333333256832  0.0000000000000000   F   F   F
  0.4999999999403144  0.1666666666467691  0.0000000000000000   F   F   F
  0.4999999999403144  0.4999999999403144  0.0000000000000000   F   F   F
  0.4999999999403144  0.8333333333256832  0.0000000000000000   F   F   F
  0.8333333333256832  0.1666666666467691  0.0000000000000000   F   F   F
  0.8333333333256832  0.4999999999403144  0.0000000000000000   F   F   F
  0.8333333333256832  0.8333333333256832  0.0000000000000000   F   F   F
  0.0000000000000000  0.1666666666467691  0.0655116416169861   F   F   F
  0.0000000000000000  0.4999999999403144  0.0655116416169861   F   F   F
  0.0000000000000000  0.8333333333256832  0.0655116416169861   F   F   F
  0.3333333332935382  0.1666666666467691  0.0655116416169861   F   F   F
  0.3333333332935382  0.4999999999403144  0.0655116416169861   F   F   F
  0.3333333332935382  0.8333333333256832  0.0655116416169861   F   F   F
  0.6666666666789069  0.1666666666467691  0.0655116416169861   F   F   F
  0.6666666666789069  0.4999999999403144  0.0655116416169861   F   F   F
  0.6666666666789069  0.8333333333256832  0.0655116416169861   F   F   F
  0.1666666666467691  0.0000000000000000  0.0655116416169861   F   F   F
  0.1666666666467691  0.3333333332935382  0.0655116416169861   F   F   F
  0.1666666666467691  0.6666666666789069  0.0655116416169861   F   F   F
  0.4999999999403144  0.0000000000000000  0.0655116416169861   F   F   F
  0.4999999999403144  0.3333333332935382  0.0655116416169861   F   F   F
  0.4999999999403144  0.6666666666789069  0.0655116416169861   F   F   F
  0.8333333333256832  0.0000000000000000  0.0655116416169861   F   F   F
  0.8333333333256832  0.3333333332935382  0.0655116416169861   F   F   F
  0.8333333333256832  0.6666666666789069  0.0655116416169861   F   F   F
  0.0000000000000000  0.0000000000000000  0.1290732523257081   T   T   T
 -0.0000000000000000  0.3333333332935382  0.1290732523257081   T   T   T
 -0.0000000000000000  0.6666666666789069  0.1290732523257081   T   T   T
  0.3333333332935382 -0.0000000000000000  0.1290732523257081   T   T   T
  0.3333333332935382  0.3333333332935382  0.1290732523257081   T   T   T
  0.3333333332935382  0.6666666666789069  0.1290732523257081   T   T   T
  0.6666666666789069  0.0000000000000000  0.1290732523257081   T   T   T
  0.6666666666789069  0.3333333332935382  0.1290732523257081   T   T   T
  0.6666666666789069  0.6666666666789069  0.1290732523257081   T   T   T
  0.1666666666467691  0.1666666666467691  0.1290732523257081   T   T   T
  0.1666666666467691  0.4999999999403144  0.1290732523257081   T   T   T
  0.1666666666467691  0.8333333333256832  0.1290732523257081   T   T   T
  0.4999999999403144  0.1666666666467691  0.1290732523257081   T   T   T
  0.4999999999403144  0.4999999999403144  0.1290732523257081   T   T   T
  0.4999999999403144  0.8333333333256832  0.1290732523257081   T   T   T
  0.8333333333256832  0.1666666666467691  0.1290732523257081   T   T   T
  0.8333333333256832  0.4999999999403144  0.1290732523257081   T   T   T
  0.8333333333256832  0.8333333333256832  0.1290732523257081   T   T   T
 -0.0000000000000000  0.1666666666467691  0.1922107803915517   T   T   T
 -0.0000000000000000  0.4999999999403144  0.1922107803915517   T   T   T
 -0.0000000000000000  0.8333333333256832  0.1922107803915517   T   T   T
  0.3333333332935382  0.1666666666467691  0.1922107803915517   T   T   T
  0.3333333332935382  0.4999999999403144  0.1922107803915517   T   T   T
  0.3333333332935382  0.8333333333256832  0.1922107803915517   T   T   T
  0.6666666666789069  0.1666666666467691  0.1922107803915517   T   T   T
  0.6666666666789069  0.4999999999403144  0.1922107803915517   T   T   T
  0.6666666666789069  0.8333333333256832  0.1922107803915517   T   T   T
  0.1666666666467691  0.0000000000000000  0.1922107803915517   T   T   T
  0.1666666666467691  0.3333333332935382  0.1922107803915517   T   T   T
  0.1666666666467691  0.6666666666789069  0.1922107803915517   T   T   T
  0.4999999999403144 -0.0000000000000000  0.1922107803915517   T   T   T
  0.4999999999403144  0.3333333332935382  0.1922107803915517   T   T   T
  0.4999999999403144  0.6666666666789069  0.1922107803915517   T   T   T
  0.8333333333256832 -0.0000000000000000  0.1922107803915517   T   T   T
  0.8333333333256832  0.3333333332935382  0.1922107803915517   T   T   T
  0.8333333333256832  0.6666666666789069  0.1922107803915517   T   T   T
  0.0000000000000000  0.0000000000000000  0.2549636040050721   T   T   T
 -0.0000000000000000  0.3333333332935382  0.2549636040050721   T   T   T
 -0.0000000000000000  0.6666666666789069  0.2549636040050721   T   T   T
  0.3333333332935382  0.0000000000000000  0.2549636040050721   T   T   T
  0.3333333332935382  0.3333333332935382  0.2549636040050721   T   T   T
  0.3333333332935382  0.6666666666789069  0.2549636040050721   T   T   T
  0.6666666666789069 -0.0000000000000000  0.2549636040050721   T   T   T
  0.6666666666789069  0.3333333332935382  0.2549636040050721   T   T   T
  0.6666666666789069  0.6666666666789069  0.2549636040050721   T   T   T
  0.1666666666467691  0.1666666666467691  0.2549636040050721   T   T   T
  0.1666666666467691  0.4999999999403144  0.2549636040050721   T   T   T
  0.1666666666467691  0.8333333333256832  0.2549636040050721   T   T   T
  0.4999999999403144  0.1666666666467691  0.2549636040050721   T   T   T
  0.4999999999403144  0.4999999999403144  0.2549636040050721   T   T   T
  0.4999999999403144  0.8333333333256832  0.2549636040050721   T   T   T
  0.8333333333256832  0.1666666666467691  0.2549636040050721   T   T   T
  0.8333333333256832  0.4999999999403144  0.2549636040050721   T   T   T
  0.8333333333256832  0.8333333333256832  0.2549636040050721   T   T   T
  0.0000000000000000  0.1666666666467691  0.3177947275767647   T   T   T
  0.0000000000000000  0.4999999999403144  0.3177947275767647   T   T   T
  0.0000000000000000  0.8333333333256832  0.3177947275767647   T   T   T
  0.3333333332935382  0.1666666666467691  0.3177947275767647   T   T   T
  0.3333333332935382  0.4999999999403144  0.3177947275767647   T   T   T
  0.3333333332935382  0.8333333333256832  0.3177947275767647   T   T   T
  0.6666666666789069  0.1666666666467691  0.3177947275767647   T   T   T
  0.6666666666789069  0.4999999999403144  0.3177947275767647   T   T   T
  0.6666666666789069  0.8333333333256832  0.3177947275767647   T   T   T
  0.1666666666467691 -0.0000000000000000  0.3177947275767647   T   T   T
  0.1666666666467691  0.3333333332935382  0.3177947275767647   T   T   T
  0.1666666666467691  0.6666666666789069  0.3177947275767647   T   T   T
  0.4999999999403144 -0.0000000000000000  0.3177947275767647   T   T   T
  0.4999999999403144  0.3333333332935382  0.3177947275767647   T   T   T
  0.4999999999403144  0.6666666666789069  0.3177947275767647   T   T   T
  0.8333333333256832  0.0000000000000000  0.3177947275767647   T   T   T
  0.8333333333256832  0.3333333332935382  0.3177947275767647   T   T   T
  0.8333333333256832  0.6666666666789069  0.3177947275767647   T   T   T
 -0.0000000000000000  0.0000000000000000  0.3811506144144131   T   T   T
 -0.0000000000000000  0.3333333332935382  0.3811506144144131   T   T   T
 -0.0000000000000000  0.6666666666789069  0.3811506144144131   T   T   T
  0.3333333332935382 -0.0000000000000000  0.3811506144144131   T   T   T
  0.3333333332935382  0.3333333332935382  0.3811506144144131   T   T   T
  0.3333333332935382  0.6666666666789069  0.3811506144144131   T   T   T
  0.6666666666789069  0.0000000000000000  0.3811506144144131   T   T   T
  0.6666666666789069  0.3333333332935382  0.3811506144144131   T   T   T
  0.6666666666789069  0.6666666666789069  0.3811506144144131   T   T   T
  0.1666666666467691  0.1666666666467691  0.3811506144144131   T   T   T
  0.1666666666467691  0.4999999999403144  0.3811506144144131   T   T   T
  0.1666666666467691  0.8333333333256832  0.3811506144144131   T   T   T
  0.4999999999403144  0.1666666666467691  0.3811506144144131   T   T   T
  0.4999999999403144  0.4999999999403144  0.3811506144144131   T   T   T
  0.4999999999403144  0.8333333333256832  0.3811506144144131   T   T   T
  0.8333333333256832  0.1666666666467691  0.3811506144144131   T   T   T
  0.8333333333256832  0.4999999999403144  0.3811506144144131   T   T   T
  0.8333333333256832  0.8333333333256832  0.3811506144144131   T   T   T
  0.0000000000000000  0.1666666666467691  0.4435566614960536   T   T   T
  0.0000000000000000  0.4999999999403144  0.4435566614960536   T   T   T
  0.0000000000000000  0.8333333333256832  0.4435566614960536   T   T   T
  0.3333333332935382  0.1666666666467691  0.4435566614960536   T   T   T
  0.3333333332935382  0.4999999999403144  0.4435566614960536   T   T   T
  0.3333333332935382  0.8333333333256832  0.4435566614960536   T   T   T
  0.6666666666789069  0.1666666666467691  0.4435566614960536   T   T   T
  0.6666666666789069  0.4999999999403144  0.4435566614960536   T   T   T
  0.6666666666789069  0.8333333333256832  0.4435566614960536   T   T   T
  0.1666666666467691 -0.0000000000000000  0.4435566614960536   T   T   T
  0.1666666666467691  0.3333333332935382  0.4435566614960536   T   T   T
  0.1666666666467691  0.6666666666789069  0.4435566614960536   T   T   T
  0.4999999999403144  0.0000000000000000  0.4435566614960536   T   T   T
  0.4999999999403144  0.3333333332935382  0.4435566614960536   T   T   T
  0.4999999999403144  0.6666666666789069  0.4435566614960536   T   T   T
  0.8333333333256832 -0.0000000000000000  0.4435566614960536   T   T   T
  0.8333333333256832  0.3333333332935382  0.4435566614960536   T   T   T
  0.8333333333256832  0.6666666666789069  0.4435566614960536   T   T   T
 
  0.00000000E+00  0.00000000E+00  0.00000000E+00
  0.00000000E+00  0.00000000E+00  0.00000000E+00
  0.00000000E+00  0.00000000E+00  0.00000000E+00
  0.00000000E+00  0.00000000E+00  0.00000000E+00
  0.00000000E+00  0.00000000E+00  0.00000000E+00
  0.00000000E+00  0.00000000E+00  0.00000000E+00
  0.00000000E+00  0.00000000E+00  0.00000000E+00
  0.00000000E+00  0.00000000E+00  0.00000000E+00
  0.00000000E+00  0.00000000E+00  0.00000000E+00
  0.00000000E+00  0.00000000E+00  0.00000000E+00
  0.00000000E+00  0.00000000E+00  0.00000000E+00
  0.00000000E+00  0.00000000E+00  0.00000000E+00
  0.00000000E+00  0.00000000E+00  0.00000000E+00
  0.00000000E+00  0.00000000E+00  0.00000000E+00
  0.00000000E+00  0.00000000E+00  0.00000000E+00
  0.00000000E+00  0.00000000E+00  0.00000000E+00
  0.00000000E+00  0.00000000E+00  0.00000000E+00
  0.00000000E+00  0.00000000E+00  0.00000000E+00
  0.00000000E+00  0.00000000E+00  0.00000000E+00
  0.00000000E+00  0.00000000E+00  0.00000000E+00
  0.00000000E+00  0.00000000E+00  0.00000000E+00
  0.00000000E+00  0.00000000E+00  0.00000000E+00
  0.00000000E+00  0.00000000E+00  0.00000000E+00
  0.00000000E+00  0.00000000E+00  0.00000000E+00
  0.00000000E+00  0.00000000E+00  0.00000000E+00
  0.00000000E+00  0.00000000E+00  0.00000000E+00
  0.00000000E+00  0.00000000E+00  0.00000000E+00
  0.00000000E+00  0.00000000E+00  0.00000000E+00
  0.00000000E+00  0.00000000E+00  0.00000000E+00
  0.00000000E+00  0.00000000E+00  0.00000000E+00
  0.00000000E+00  0.00000000E+00  0.00000000E+00
  0.00000000E+00  0.00000000E+00  0.00000000E+00
  0.00000000E+00  0.00000000E+00  0.00000000E+00
  0.00000000E+00  0.00000000E+00  0.00000000E+00
  0.00000000E+00  0.00000000E+00  0.00000000E+00
  0.00000000E+00  0.00000000E+00  0.00000000E+00
  0.00000000E+00  0.00000000E+00  0.00000000E+00
  0.00000000E+00  0.00000000E+00  0.00000000E+00
  0.00000000E+00  0.00000000E+00  0.00000000E+00
  0.00000000E+00  0.00000000E+00  0.00000000E+00
  0.00000000E+00  0.00000000E+00  0.00000000E+00
  0.00000000E+00  0.00000000E+00  0.00000000E+00
  0.00000000E+00  0.00000000E+00  0.00000000E+00
  0.00000000E+00  0.00000000E+00  0.00000000E+00
  0.00000000E+00  0.00000000E+00  0.00000000E+00
  0.00000000E+00  0.00000000E+00  0.00000000E+00
  0.00000000E+00  0.00000000E+00  0.00000000E+00
  0.00000000E+00  0.00000000E+00  0.00000000E+00
  0.00000000E+00  0.00000000E+00  0.00000000E+00
  0.00000000E+00  0.00000000E+00  0.00000000E+00
  0.00000000E+00  0.00000000E+00  0.00000000E+00
  0.00000000E+00  0.00000000E+00  0.00000000E+00
  0.00000000E+00  0.00000000E+00  0.00000000E+00
  0.00000000E+00  0.00000000E+00  0.00000000E+00
  0.00000000E+00  0.00000000E+00  0.00000000E+00
  0.00000000E+00  0.00000000E+00  0.00000000E+00
  0.00000000E+00  0.00000000E+00  0.00000000E+00
  0.00000000E+00  0.00000000E+00  0.00000000E+00
  0.00000000E+00  0.00000000E+00  0.00000000E+00
  0.00000000E+00  0.00000000E+00  0.00000000E+00
  0.00000000E+00  0.00000000E+00  0.00000000E+00
  0.00000000E+00  0.00000000E+00  0.00000000E+00
  0.00000000E+00  0.00000000E+00  0.00000000E+00
  0.00000000E+00  0.00000000E+00  0.00000000E+00
  0.00000000E+00  0.00000000E+00  0.00000000E+00
  0.00000000E+00  0.00000000E+00  0.00000000E+00
  0.00000000E+00  0.00000000E+00  0.00000000E+00
  0.00000000E+00  0.00000000E+00  0.00000000E+00
  0.00000000E+00  0.00000000E+00  0.00000000E+00
  0.00000000E+00  0.00000000E+00  0.00000000E+00
  0.00000000E+00  0.00000000E+00  0.00000000E+00
  0.00000000E+00  0.00000000E+00  0.00000000E+00
  0.00000000E+00  0.00000000E+00  0.00000000E+00
  0.00000000E+00  0.00000000E+00  0.00000000E+00
  0.00000000E+00  0.00000000E+00  0.00000000E+00
  0.00000000E+00  0.00000000E+00  0.00000000E+00
  0.00000000E+00  0.00000000E+00  0.00000000E+00
  0.00000000E+00  0.00000000E+00  0.00000000E+00
  0.00000000E+00  0.00000000E+00  0.00000000E+00
  0.00000000E+00  0.00000000E+00  0.00000000E+00
  0.00000000E+00  0.00000000E+00  0.00000000E+00
  0.00000000E+00  0.00000000E+00  0.00000000E+00
  0.00000000E+00  0.00000000E+00  0.00000000E+00
  0.00000000E+00  0.00000000E+00  0.00000000E+00
  0.00000000E+00  0.00000000E+00  0.00000000E+00
  0.00000000E+00  0.00000000E+00  0.00000000E+00
  0.00000000E+00  0.00000000E+00  0.00000000E+00
  0.00000000E+00  0.00000000E+00  0.00000000E+00
  0.00000000E+00  0.00000000E+00  0.00000000E+00
  0.00000000E+00  0.00000000E+00  0.00000000E+00
  0.00000000E+00  0.00000000E+00  0.00000000E+00
  0.00000000E+00  0.00000000E+00  0.00000000E+00
  0.00000000E+00  0.00000000E+00  0.00000000E+00
  0.00000000E+00  0.00000000E+00  0.00000000E+00
  0.00000000E+00  0.00000000E+00  0.00000000E+00
  0.00000000E+00  0.00000000E+00  0.00000000E+00
  0.00000000E+00  0.00000000E+00  0.00000000E+00
  0.00000000E+00  0.00000000E+00  0.00000000E+00
  0.00000000E+00  0.00000000E+00  0.00000000E+00
  0.00000000E+00  0.00000000E+00  0.00000000E+00
  0.00000000E+00  0.00000000E+00  0.00000000E+00
  0.00000000E+00  0.00000000E+00  0.00000000E+00
  0.00000000E+00  0.00000000E+00  0.00000000E+00
  0.00000000E+00  0.00000000E+00  0.00000000E+00
  0.00000000E+00  0.00000000E+00  0.00000000E+00
  0.00000000E+00  0.00000000E+00  0.00000000E+00
  0.00000000E+00  0.00000000E+00  0.00000000E+00
  0.00000000E+00  0.00000000E+00  0.00000000E+00
  0.00000000E+00  0.00000000E+00  0.00000000E+00
  0.00000000E+00  0.00000000E+00  0.00000000E+00
  0.00000000E+00  0.00000000E+00  0.00000000E+00
  0.00000000E+00  0.00000000E+00  0.00000000E+00
  0.00000000E+00  0.00000000E+00  0.00000000E+00
  0.00000000E+00  0.00000000E+00  0.00000000E+00
  0.00000000E+00  0.00000000E+00  0.00000000E+00
  0.00000000E+00  0.00000000E+00  0.00000000E+00
  0.00000000E+00  0.00000000E+00  0.00000000E+00
  0.00000000E+00  0.00000000E+00  0.00000000E+00
  0.00000000E+00  0.00000000E+00  0.00000000E+00
  0.00000000E+00  0.00000000E+00  0.00000000E+00
  0.00000000E+00  0.00000000E+00  0.00000000E+00
  0.00000000E+00  0.00000000E+00  0.00000000E+00
  0.00000000E+00  0.00000000E+00  0.00000000E+00
  0.00000000E+00  0.00000000E+00  0.00000000E+00
  0.00000000E+00  0.00000000E+00  0.00000000E+00
  0.00000000E+00  0.00000000E+00  0.00000000E+00
  0.00000000E+00  0.00000000E+00  0.00000000E+00
  0.00000000E+00  0.00000000E+00  0.00000000E+00
  0.00000000E+00  0.00000000E+00  0.00000000E+00
  0.00000000E+00  0.00000000E+00  0.00000000E+00
  0.00000000E+00  0.00000000E+00  0.00000000E+00
  0.00000000E+00  0.00000000E+00  0.00000000E+00
  0.00000000E+00  0.00000000E+00  0.00000000E+00
  0.00000000E+00  0.00000000E+00  0.00000000E+00
  0.00000000E+00  0.00000000E+00  0.00000000E+00
  0.00000000E+00  0.00000000E+00  0.00000000E+00
  0.00000000E+00  0.00000000E+00  0.00000000E+00
  0.00000000E+00  0.00000000E+00  0.00000000E+00
  0.00000000E+00  0.00000000E+00  0.00000000E+00
  0.00000000E+00  0.00000000E+00  0.00000000E+00
  0.00000000E+00  0.00000000E+00  0.00000000E+00
  0.00000000E+00  0.00000000E+00  0.00000000E+00
  0.00000000E+00  0.00000000E+00  0.00000000E+00
  0.00000000E+00  0.00000000E+00  0.00000000E+00
