FCC Cu                                  
   1.00000000000000     
    10.8900003433000006    0.0000000000000000    0.0000000000000000
     0.0000000000000000   10.8900003433000006    0.0000000000000000
     0.0000000000000000    0.0000000000000000   27.7049999237000009
   Cu
   144
Selective dynamics
Cartesian
0.0 0.0 0.0
0.0 3.6300001139999645 0.0
0.0 7.260000228999964 0.0
3.6300001139999645 0.0 0.0
3.6300001139999645 3.6300001139999645 0.0
3.6300001139999645 7.260000228999964 0.0
7.260000228999964 0.0 0.0
7.260000228999964 3.6300001139999645 0.0
7.260000228999964 7.260000228999964 0.0
1.8150000569999822 1.8150000569999822 0.0
1.8150000569999822 5.445000171000024 0.0
1.8150000569999822 9.075000286000023 0.0
5.445000171000024 1.8150000569999822 0.0
5.445000171000024 5.445000171000024 0.0
5.445000171000024 9.075000286000023 0.0
9.075000286000023 1.8150000569999822 0.0
9.075000286000023 5.445000171000024 0.0
9.075000286000023 9.075000286000023 0.0
0.0 1.8150000569999822 1.8150000260000616
0.0 5.445000171000024 1.8150000260000616
0.0 9.075000286000023 1.8150000260000616
3.6300001139999645 1.8150000569999822 1.8150000260000616
3.6300001139999645 5.445000171000024 1.8150000260000616
3.6300001139999645 9.075000286000023 1.8150000260000616
7.260000228999964 1.8150000569999822 1.8150000260000616
7.260000228999964 5.445000171000024 1.8150000260000616
7.260000228999964 9.075000286000023 1.8150000260000616
1.8150000569999822 0.0 1.8150000260000616
1.8150000569999822 3.6300001139999645 1.8150000260000616
1.8150000569999822 7.260000228999964 1.8150000260000616
5.445000171000024 0.0 1.8150000260000616
5.445000171000024 3.6300001139999645 1.8150000260000616
5.445000171000024 7.260000228999964 1.8150000260000616
9.075000286000023 0.0 1.8150000260000616
9.075000286000023 3.6300001139999645 1.8150000260000616
9.075000286000023 7.260000228999964 1.8150000260000616
0.0 0.0 3.575974445835454
-0.0 3.6300001139999645 3.575974445835454
-0.0 7.260000228999964 3.575974445835454
3.6300001139999645 -0.0 3.575974445835454
3.6300001139999645 3.6300001139999645 3.575974445835454
3.6300001139999645 7.260000228999964 3.575974445835454
7.260000228999964 0.0 3.575974445835454
7.260000228999964 3.6300001139999645 3.575974445835454
7.260000228999964 7.260000228999964 3.575974445835454
1.8150000569999822 1.8150000569999822 3.575974445835454
1.8150000569999822 5.445000171000024 3.575974445835454
1.8150000569999822 9.075000286000023 3.575974445835454
5.445000171000024 1.8150000569999822 3.575974445835454
5.445000171000024 5.445000171000024 3.575974445835454
5.445000171000024 9.075000286000023 3.575974445835454
9.075000286000023 1.8150000569999822 3.575974445835454
9.075000286000023 5.445000171000024 3.575974445835454
9.075000286000023 9.075000286000023 3.575974445835454
-0.0 1.8150000569999822 5.325199656082257
-0.0 5.445000171000024 5.325199656082257
-0.0 9.075000286000023 5.325199656082257
3.6300001139999645 1.8150000569999822 5.325199656082257
3.6300001139999645 5.445000171000024 5.325199656082257
3.6300001139999645 9.075000286000023 5.325199656082257
7.260000228999964 1.8150000569999822 5.325199656082257
7.260000228999964 5.445000171000024 5.325199656082257
7.260000228999964 9.075000286000023 5.325199656082257
1.8150000569999822 0.0 5.325199656082257
1.8150000569999822 3.6300001139999645 5.325199656082257
1.8150000569999822 7.260000228999964 5.325199656082257
5.445000171000024 -0.0 5.325199656082257
5.445000171000024 3.6300001139999645 5.325199656082257
5.445000171000024 7.260000228999964 5.325199656082257
9.075000286000023 -0.0 5.325199656082257
9.075000286000023 3.6300001139999645 5.325199656082257
9.075000286000023 7.260000228999964 5.325199656082257
0.0 0.0 7.063766629506801
-0.0 3.6300001139999645 7.063766629506801
-0.0 7.260000228999964 7.063766629506801
3.6300001139999645 0.0 7.063766629506801
3.6300001139999645 3.6300001139999645 7.063766629506801
3.6300001139999645 7.260000228999964 7.063766629506801
7.260000228999964 -0.0 7.063766629506801
7.260000228999964 3.6300001139999645 7.063766629506801
7.260000228999964 7.260000228999964 7.063766629506801
1.8150000569999822 1.8150000569999822 7.063766629506801
1.8150000569999822 5.445000171000024 7.063766629506801
1.8150000569999822 9.075000286000023 7.063766629506801
5.445000171000024 1.8150000569999822 7.063766629506801
5.445000171000024 5.445000171000024 7.063766629506801
5.445000171000024 9.075000286000023 7.063766629506801
9.075000286000023 1.8150000569999822 7.063766629506801
9.075000286000023 5.445000171000024 7.063766629506801
9.075000286000023 9.075000286000023 7.063766629506801
0.0 1.8150000569999822 8.804502903266528
0.0 5.445000171000024 8.804502903266528
0.0 9.075000286000023 8.804502903266528
3.6300001139999645 1.8150000569999822 8.804502903266528
3.6300001139999645 5.445000171000024 8.804502903266528
3.6300001139999645 9.075000286000023 8.804502903266528
7.260000228999964 1.8150000569999822 8.804502903266528
7.260000228999964 5.445000171000024 8.804502903266528
7.260000228999964 9.075000286000023 8.804502903266528
1.8150000569999822 -0.0 8.804502903266528
1.8150000569999822 3.6300001139999645 8.804502903266528
1.8150000569999822 7.260000228999964 8.804502903266528
5.445000171000024 -0.0 8.804502903266528
5.445000171000024 3.6300001139999645 8.804502903266528
5.445000171000024 7.260000228999964 8.804502903266528
9.075000286000023 0.0 8.804502903266528
9.075000286000023 3.6300001139999645 8.804502903266528
9.075000286000023 7.260000228999964 8.804502903266528
-0.0 0.0 10.559777743269525
-0.0 3.6300001139999645 10.559777743269525
-0.0 7.260000228999964 10.559777743269525
3.6300001139999645 -0.0 10.559777743269525
3.6300001139999645 3.6300001139999645 10.559777743269525
3.6300001139999645 7.260000228999964 10.559777743269525
7.260000228999964 0.0 10.559777743269525
7.260000228999964 3.6300001139999645 10.559777743269525
7.260000228999964 7.260000228999964 10.559777743269525
1.8150000569999822 1.8150000569999822 10.559777743269525
1.8150000569999822 5.445000171000024 10.559777743269525
1.8150000569999822 9.075000286000023 10.559777743269525
5.445000171000024 1.8150000569999822 10.559777743269525
5.445000171000024 5.445000171000024 10.559777743269525
5.445000171000024 9.075000286000023 10.559777743269525
9.075000286000023 1.8150000569999822 10.559777743269525
9.075000286000023 5.445000171000024 10.559777743269525
9.075000286000023 9.075000286000023 10.559777743269525
0.0 1.8150000569999822 12.288737272904791
0.0 5.445000171000024 12.288737272904791
0.0 9.075000286000023 12.288737272904791
3.6300001139999645 1.8150000569999822 12.288737272904791
3.6300001139999645 5.445000171000024 12.288737272904791
3.6300001139999645 9.075000286000023 12.288737272904791
7.260000228999964 1.8150000569999822 12.288737272904791
7.260000228999964 5.445000171000024 12.288737272904791
7.260000228999964 9.075000286000023 12.288737272904791
1.8150000569999822 -0.0 12.288737272904791
1.8150000569999822 3.6300001139999645 12.288737272904791
1.8150000569999822 7.260000228999964 12.288737272904791
5.445000171000024 0.0 12.288737272904791
5.445000171000024 3.6300001139999645 12.288737272904791
5.445000171000024 7.260000228999964 12.288737272904791
9.075000286000023 -0.0 12.288737272904791
9.075000286000023 3.6300001139999645 12.288737272904791
9.075000286000023 7.260000228999964 12.288737272904791
