FCC Cu                                  
   1.00000000000000     
     3.6300001144000000    0.0000000000000000    0.0000000000000000
     0.0000000000000000    2.5667977333000001    0.0000000000000000
     0.0000000000000000    0.0000000000000000   23.9837920699999998
   Cu
     8
Selective dynamics
Direct
  0.0000000000000000  0.0000000000000000  0.0000000000000000   F   F   F
  0.4999999999449045  0.5000000001363532  0.0535110904586844   F   F   F
  0.0000000000000000  0.0000000000000000  0.1046814761674609   T   T   T
  0.4999999999449045  0.5000000001363532  0.1579299553113489   T   T   T
  0.0000000000000000  0.0000000000000000  0.2107089905585600   T   T   T
  0.4999999999449045  0.5000000001363532  0.2628904783700151   T   T   T
  0.0000000000000000  0.0000000000000000  0.3171159157995704   T   T   T
  0.4999999999449045  0.5000000001363532  0.3646759012422528   T   T   T
 
  0.00000000E+00  0.00000000E+00  0.00000000E+00
  0.00000000E+00  0.00000000E+00  0.00000000E+00
  0.00000000E+00  0.00000000E+00  0.00000000E+00
  0.00000000E+00  0.00000000E+00  0.00000000E+00
  0.00000000E+00  0.00000000E+00  0.00000000E+00
  0.00000000E+00  0.00000000E+00  0.00000000E+00
  0.00000000E+00  0.00000000E+00  0.00000000E+00
  0.00000000E+00  0.00000000E+00  0.00000000E+00
