FCC Cu                                  
1.0
        3.6300001144         0.0000000000         0.0000000000
        0.0000000000         2.5667977333         0.0000000000
        0.0000000000         0.0000000000        23.9837913513
   Cu
    8
Cartesian
     0.000000000         0.000000000         0.000000000
     1.815000057         1.283398867         1.283398829
     0.000000000         0.000000000         2.510658683
     1.815000057         1.283398867         3.787759096
     0.000000000         0.000000000         5.053600465
     1.815000057         1.283398867         6.305110381
     0.000000000         0.000000000         7.605641959
     1.815000057         1.283398867         8.746310726
