FCC Cu                                  
   1.00000000000000     
     3.6300001144000000    0.0000000000000000    0.0000000000000000
     0.0000000000000000    3.6300001144000000    0.0000000000000000
     0.0000000000000000    0.0000000000000000   27.7049999237000009
   Cu
    16
Selective dynamics
Cartesian
0.0 0.0 0.0
1.8150000570000033 1.8150000570000033 0.0
0.0 1.8150000570000033 1.8150000260000616
1.8150000570000033 0.0 1.8150000260000616
0.0 0.0 3.5673289519669824
1.8150000570000033 1.8150000570000033 3.5673289519669824
0.0 1.8150000570000033 5.317472375775618
1.8150000570000033 -0.0 5.317472375775618
0.0 -0.0 7.0388847266855965
1.8150000570000033 1.8150000570000033 7.0388847266855965
-0.0 1.8150000570000033 8.795743304045684
1.8150000570000033 -0.0 8.795743304045684
-0.0 0.0 10.564534995805921
1.8150000570000033 1.8150000570000033 10.564534995805921
-0.0 1.8150000570000033 12.312122747347818
1.8150000570000033 0.0 12.312122747347818
