FCC Cu                                  
   1.00000000000000     
     7.2600002289000001    0.0000000000000000    0.0000000000000000
     0.0000000000000000    7.2600002289000001    0.0000000000000000
     0.0000000000000000    0.0000000000000000   27.7049999237000009
   Cu   H 
    64     2
Direct
 -0.0022128612327315 -0.0016570984348935  0.0085893596928522
 -0.0022437077242342  0.4987893131727287  0.0085830636120782
  0.4976550743044700 -0.0013660315252582  0.0085517745012514
  0.4977208790799650  0.4984903255732405  0.0085489521044920
  0.2480038854104121  0.2485530945925788  0.0085649041204394
  0.2476592520907177  0.7485656682809608  0.0085545184928687
  0.7474939443462478  0.2485866390483905  0.0085728075376772
  0.7478112371296942  0.7484990360940218  0.0085582736133443
 -0.0022035522012278  0.2486003826380387  0.0707818810312028
 -0.0023076349954410  0.7485875186830493  0.0706790271973626
  0.4976999198679757  0.2486036723306218  0.0706865065920464
  0.4978881176410865  0.7486627857028358  0.0708379772129001
  0.2478266759314995 -0.0013625201839601  0.0706953922509788
  0.2477754105389843  0.4985436348215138  0.0706904252431490
  0.7477290380287197 -0.0014328896312647  0.0707160047175524
  0.7477117980092817  0.4987051586993196  0.0707058167692005
 -0.0023054062200618 -0.0017890918802796  0.1343309234946404
 -0.0024461026309628  0.4988337018039307  0.1343176352100836
  0.4975320741851842 -0.0011849699524836  0.1342915087413006
  0.4976250478636554  0.4982584343670888  0.1342640679161149
  0.2479051903533047  0.2484723597828262  0.1343203889972392
  0.2472670787924529  0.7485954564145280  0.1342405195092242
  0.7472622315158551  0.2486219421257548  0.1343342374402496
  0.7477783106903052  0.7485137454374764  0.1342704427480700
 -0.0025902747506948  0.2484937105035515  0.1969074289576093
 -0.0026277436592020  0.7483957287342488  0.1974236936566727
  0.4973799666641434  0.2484932851478976  0.1974397409178925
  0.4973450713999360  0.7484412562987428  0.1970661223391324
  0.2478191046754469 -0.0019756420306518  0.1971073734226569
  0.2477926784375385  0.4988731118342157  0.1970761676096321
  0.7470562304992407 -0.0018706115277547  0.1970870105453477
  0.7469847751256542  0.4988275657207679  0.1971064442141776
 -0.0029780994006451 -0.0014334095643124  0.2594982070408652
 -0.0028856925273277  0.4980199020519673  0.2594982620635573
  0.4971094403208328 -0.0018865921664501  0.2597491906917322
  0.4971047384650178  0.4983857391857706  0.2597972408299714
  0.2467422137895356  0.2483917052456534  0.2594497335758292
  0.2470942665471809  0.7483668090959298  0.2597795712499328
  0.7472616795863360  0.2482707659387181  0.2594871685123344
  0.7467787927434867  0.7483354531223800  0.2597203344727874
 -0.0033424020530745  0.2481101416211659  0.3223995327014545
 -0.0039107292736472  0.7481504602182191  0.3224272019587617
  0.4967201168061525  0.2478299499298216  0.3224686786485562
  0.4966303157559213  0.7481366342631194  0.3226219234411428
  0.2468030276448348 -0.0016701836703435  0.3222705305989607
  0.2467605032206983  0.4981189783718483  0.3222927137937229
  0.7465671346275221 -0.0019832322174968  0.3223589423999640
  0.7467741183189872  0.4982603356632646  0.3223070023759962
 -0.0037761705420168 -0.0023156312293704  0.3857400647801138
 -0.0041196981651490  0.4983110553171146  0.3856541024718536
  0.4960649536625928 -0.0038460007959598  0.3865155645914518
  0.4962072955240130  0.4990936511222773  0.3863581109525374
  0.2467541769735229  0.2476604563188214  0.3855896621382895
  0.2472410286110868  0.7479732714736446  0.3862223702685542
  0.7459841589593975  0.2479869048979257  0.3857605080974537
  0.7439241985795514  0.7478393488079426  0.3864881136222318
 -0.0045986670288793  0.2476113646466054  0.4480531383480386
 -0.0043558448140767  0.7477882505415597  0.4480469170303597
  0.4959078794894949  0.2476163172463292  0.4482569867270876
  0.4955918618734035  0.7477127552566100  0.4508271593029203
  0.2438473607528863 -0.0000129638102076  0.4482151621122276
  0.2423121953906853  0.4939282711660554  0.4477519840609083
  0.7480279699275253 -0.0000582706098817  0.4481895723467331
  0.7474120340298274  0.4960659368229807  0.4483308420061822
  0.5011310003904714  0.6846146904500569  0.5123345763001405
  0.4434291295784707  0.7800132772132043  0.5124905352976784
 
  0.00000000E+00  0.00000000E+00  0.00000000E+00
  0.00000000E+00  0.00000000E+00  0.00000000E+00
  0.00000000E+00  0.00000000E+00  0.00000000E+00
  0.00000000E+00  0.00000000E+00  0.00000000E+00
  0.00000000E+00  0.00000000E+00  0.00000000E+00
  0.00000000E+00  0.00000000E+00  0.00000000E+00
  0.00000000E+00  0.00000000E+00  0.00000000E+00
  0.00000000E+00  0.00000000E+00  0.00000000E+00
  0.00000000E+00  0.00000000E+00  0.00000000E+00
  0.00000000E+00  0.00000000E+00  0.00000000E+00
  0.00000000E+00  0.00000000E+00  0.00000000E+00
  0.00000000E+00  0.00000000E+00  0.00000000E+00
  0.00000000E+00  0.00000000E+00  0.00000000E+00
  0.00000000E+00  0.00000000E+00  0.00000000E+00
  0.00000000E+00  0.00000000E+00  0.00000000E+00
  0.00000000E+00  0.00000000E+00  0.00000000E+00
  0.00000000E+00  0.00000000E+00  0.00000000E+00
  0.00000000E+00  0.00000000E+00  0.00000000E+00
  0.00000000E+00  0.00000000E+00  0.00000000E+00
  0.00000000E+00  0.00000000E+00  0.00000000E+00
  0.00000000E+00  0.00000000E+00  0.00000000E+00
  0.00000000E+00  0.00000000E+00  0.00000000E+00
  0.00000000E+00  0.00000000E+00  0.00000000E+00
  0.00000000E+00  0.00000000E+00  0.00000000E+00
  0.00000000E+00  0.00000000E+00  0.00000000E+00
  0.00000000E+00  0.00000000E+00  0.00000000E+00
  0.00000000E+00  0.00000000E+00  0.00000000E+00
  0.00000000E+00  0.00000000E+00  0.00000000E+00
  0.00000000E+00  0.00000000E+00  0.00000000E+00
  0.00000000E+00  0.00000000E+00  0.00000000E+00
  0.00000000E+00  0.00000000E+00  0.00000000E+00
  0.00000000E+00  0.00000000E+00  0.00000000E+00
  0.00000000E+00  0.00000000E+00  0.00000000E+00
  0.00000000E+00  0.00000000E+00  0.00000000E+00
  0.00000000E+00  0.00000000E+00  0.00000000E+00
  0.00000000E+00  0.00000000E+00  0.00000000E+00
  0.00000000E+00  0.00000000E+00  0.00000000E+00
  0.00000000E+00  0.00000000E+00  0.00000000E+00
  0.00000000E+00  0.00000000E+00  0.00000000E+00
  0.00000000E+00  0.00000000E+00  0.00000000E+00
  0.00000000E+00  0.00000000E+00  0.00000000E+00
  0.00000000E+00  0.00000000E+00  0.00000000E+00
  0.00000000E+00  0.00000000E+00  0.00000000E+00
  0.00000000E+00  0.00000000E+00  0.00000000E+00
  0.00000000E+00  0.00000000E+00  0.00000000E+00
  0.00000000E+00  0.00000000E+00  0.00000000E+00
  0.00000000E+00  0.00000000E+00  0.00000000E+00
  0.00000000E+00  0.00000000E+00  0.00000000E+00
  0.00000000E+00  0.00000000E+00  0.00000000E+00
  0.00000000E+00  0.00000000E+00  0.00000000E+00
  0.00000000E+00  0.00000000E+00  0.00000000E+00
  0.00000000E+00  0.00000000E+00  0.00000000E+00
  0.00000000E+00  0.00000000E+00  0.00000000E+00
  0.00000000E+00  0.00000000E+00  0.00000000E+00
  0.00000000E+00  0.00000000E+00  0.00000000E+00
  0.00000000E+00  0.00000000E+00  0.00000000E+00
  0.00000000E+00  0.00000000E+00  0.00000000E+00
  0.00000000E+00  0.00000000E+00  0.00000000E+00
  0.00000000E+00  0.00000000E+00  0.00000000E+00
  0.00000000E+00  0.00000000E+00  0.00000000E+00
  0.00000000E+00  0.00000000E+00  0.00000000E+00
  0.00000000E+00  0.00000000E+00  0.00000000E+00
  0.00000000E+00  0.00000000E+00  0.00000000E+00
  0.00000000E+00  0.00000000E+00  0.00000000E+00
  0.00000000E+00  0.00000000E+00  0.00000000E+00
  0.00000000E+00  0.00000000E+00  0.00000000E+00
