FCC Cu                                  
   1.00000000000000     
     5.1335954666000001    0.0000000000000000    0.0000000000000000
     2.5667977333000001    4.4458240868000001    0.0000000000000000
     0.0000000000000000    0.0000000000000000   29.6704711914000008
   Cu   H 
    32     2
Direct
  0.0001467420108909 -0.0000520762347611 -0.0007280499391327
  0.0001511671195558  0.4996976655076508 -0.0007577899491370
  0.4999053341654354 -0.0000520762347611 -0.0007280499391327
  0.5000110238930821  0.4999779522333193 -0.0007054716810765
  0.1666164872034261  0.1667670257295081  0.0683896675704582
  0.1665843855022957  0.6667237044511387  0.0684172788320771
  0.6666626400725221  0.1666747198744324  0.0684133750739225
  0.6666919102608367  0.6667237044511387  0.0684172788320771
  0.3331922492678103  0.3336600306337742  0.1361093423646953
  0.3330954218990780  0.8338091562213199  0.1361157902941970
  0.8331477199230959  0.3336600306337742  0.1361093423646953
  0.8331735288571692  0.8336529421882668  0.1361159230128105
 -0.0004497697750871  0.0008627632926044  0.2043036388453581
 -0.0003567509393365  0.5007135016254358  0.2042888832313771
  0.4995870064240473  0.0008627632926044  0.2043036388453581
  0.4995667112855868  0.5008665774483095  0.2042562047914390
  0.1661333125654607  0.1677333750054383  0.2725311757739304
  0.1663078566827429  0.6676463856773676  0.2725878418787334
  0.6661348948086121  0.1677302104022514  0.2725978672834165
  0.6660457578541621  0.6676463856773676  0.2725878418787334
  0.3326123980351305  0.3347177088530651  0.3409129127469718
  0.3324209725759155  0.8351580548676450  0.3409302637514189
  0.8326698929364855  0.3347177088530651  0.3409129127469718
  0.8325597221880858  0.8348805555264353  0.3409599238835660
 -0.0012789764355120  0.0026416194111457  0.4088311550623395
  0.9987196505609089  0.5025606986249448  0.4087359355160197
  0.4986373569659314  0.0026416194111457  0.4088311550623395
  0.4988688446714516  0.5022623106765798  0.4086792003107417
  0.1654295346440779  0.1691409308482046  0.4780157923925076
  0.1663665394836593  0.6685159523357854  0.4778120946848610
  0.6655732350449501  0.1688535299295752  0.4779918839280038
  0.6651175083948268  0.6685159523357854  0.4778120946848610
  0.9226404344796936  0.6547191311380146  0.5678302147132162
  0.8679897378412775  0.7640205244148468  0.5872976593560379
 
  0.00000000E+00  0.00000000E+00  0.00000000E+00
  0.00000000E+00  0.00000000E+00  0.00000000E+00
  0.00000000E+00  0.00000000E+00  0.00000000E+00
  0.00000000E+00  0.00000000E+00  0.00000000E+00
  0.00000000E+00  0.00000000E+00  0.00000000E+00
  0.00000000E+00  0.00000000E+00  0.00000000E+00
  0.00000000E+00  0.00000000E+00  0.00000000E+00
  0.00000000E+00  0.00000000E+00  0.00000000E+00
  0.00000000E+00  0.00000000E+00  0.00000000E+00
  0.00000000E+00  0.00000000E+00  0.00000000E+00
  0.00000000E+00  0.00000000E+00  0.00000000E+00
  0.00000000E+00  0.00000000E+00  0.00000000E+00
  0.00000000E+00  0.00000000E+00  0.00000000E+00
  0.00000000E+00  0.00000000E+00  0.00000000E+00
  0.00000000E+00  0.00000000E+00  0.00000000E+00
  0.00000000E+00  0.00000000E+00  0.00000000E+00
  0.00000000E+00  0.00000000E+00  0.00000000E+00
  0.00000000E+00  0.00000000E+00  0.00000000E+00
  0.00000000E+00  0.00000000E+00  0.00000000E+00
  0.00000000E+00  0.00000000E+00  0.00000000E+00
  0.00000000E+00  0.00000000E+00  0.00000000E+00
  0.00000000E+00  0.00000000E+00  0.00000000E+00
  0.00000000E+00  0.00000000E+00  0.00000000E+00
  0.00000000E+00  0.00000000E+00  0.00000000E+00
  0.00000000E+00  0.00000000E+00  0.00000000E+00
  0.00000000E+00  0.00000000E+00  0.00000000E+00
  0.00000000E+00  0.00000000E+00  0.00000000E+00
  0.00000000E+00  0.00000000E+00  0.00000000E+00
  0.00000000E+00  0.00000000E+00  0.00000000E+00
  0.00000000E+00  0.00000000E+00  0.00000000E+00
  0.00000000E+00  0.00000000E+00  0.00000000E+00
  0.00000000E+00  0.00000000E+00  0.00000000E+00
  0.00000000E+00  0.00000000E+00  0.00000000E+00
  0.00000000E+00  0.00000000E+00  0.00000000E+00
