FCC Cu                                  
   1.00000000000000     
     5.1335954666000001    0.0000000000000000    0.0000000000000000
     2.5667977333000001    4.4458240868000001    0.0000000000000000
     0.0000000000000000    0.0000000000000000   29.6704711914000008
   Cu   H 
    32     2
Direct
 -0.0015677710700568  0.0031355421401137 -0.0009695537329955
  0.9983949413081220  0.5032076327535276 -0.0011168348209542
  0.4984136530385040  0.0031726938061218 -0.0011089149812442
  0.4983974258214733  0.5032076327535276 -0.0011168348209542
  0.1654588971489969  0.1691795523529683  0.0681520417373695
  0.1654399744505857  0.6691200513715352  0.0681651223232179
  0.6653615505759526  0.1691795523529683  0.0681520417373695
  0.6654229077191616  0.6691541847175141  0.0681784929966073
  0.3320489199691515  0.3359021599448196  0.1359929036097941
  0.3320518519292741  0.8359138042079303  0.1360009848924172
  0.8320499696303151  0.3359000605056081  0.1359957534834014
  0.8320343438238376  0.8359138042079303  0.1360009848924172
 -0.0013626413564160  0.0027252827128321  0.2043223209585980
 -0.0013036670421391  0.5026742242788885  0.2042471859353753
  0.4986518590994102  0.0026962816843097  0.2042469087350068
  0.4986294426463735  0.5026742242788885  0.2042471859353753
  0.1656982148793781  0.1689046738232979  0.2725479232439804
  0.1655962643558544  0.6688074715609971  0.2725510123625023
  0.6653971113752418  0.1689046738232979  0.2725479232439804
  0.6655860102471951  0.6688279796614446  0.2725014308986890
  0.3322827519830859  0.3354344959169515  0.3410201978067310
  0.3324310555516150  0.8353302993557854  0.3408841059757485
  0.8323351743251441  0.3353296511159494  0.3408724431378957
  0.8322386450536404  0.8353302993557854  0.3408841059757485
 -0.0010189914649174  0.0020379829298348  0.4086203553488144
 -0.0014379314398916  0.5022422884152598  0.4087884031534638
  0.4990772890553874  0.0018454217723552  0.4087554118824259
  0.4991956429077547  0.5022422884152598  0.4087884031534638
  0.1661008804863951  0.1678484516995838  0.4779684439081130
  0.1658944564851703  0.6682110873023659  0.4779880848566007
  0.6660506678919395  0.1678484516995838  0.4779684439081130
  0.6660148650628862  0.6679702700300640  0.4781592231241822
  0.6851055175134447  0.6297889651289462  0.5880874853193726
  0.6260051985648318  0.7479896030261726  0.5698557420240320
 
  0.00000000E+00  0.00000000E+00  0.00000000E+00
  0.00000000E+00  0.00000000E+00  0.00000000E+00
  0.00000000E+00  0.00000000E+00  0.00000000E+00
  0.00000000E+00  0.00000000E+00  0.00000000E+00
  0.00000000E+00  0.00000000E+00  0.00000000E+00
  0.00000000E+00  0.00000000E+00  0.00000000E+00
  0.00000000E+00  0.00000000E+00  0.00000000E+00
  0.00000000E+00  0.00000000E+00  0.00000000E+00
  0.00000000E+00  0.00000000E+00  0.00000000E+00
  0.00000000E+00  0.00000000E+00  0.00000000E+00
  0.00000000E+00  0.00000000E+00  0.00000000E+00
  0.00000000E+00  0.00000000E+00  0.00000000E+00
  0.00000000E+00  0.00000000E+00  0.00000000E+00
  0.00000000E+00  0.00000000E+00  0.00000000E+00
  0.00000000E+00  0.00000000E+00  0.00000000E+00
  0.00000000E+00  0.00000000E+00  0.00000000E+00
  0.00000000E+00  0.00000000E+00  0.00000000E+00
  0.00000000E+00  0.00000000E+00  0.00000000E+00
  0.00000000E+00  0.00000000E+00  0.00000000E+00
  0.00000000E+00  0.00000000E+00  0.00000000E+00
  0.00000000E+00  0.00000000E+00  0.00000000E+00
  0.00000000E+00  0.00000000E+00  0.00000000E+00
  0.00000000E+00  0.00000000E+00  0.00000000E+00
  0.00000000E+00  0.00000000E+00  0.00000000E+00
  0.00000000E+00  0.00000000E+00  0.00000000E+00
  0.00000000E+00  0.00000000E+00  0.00000000E+00
  0.00000000E+00  0.00000000E+00  0.00000000E+00
  0.00000000E+00  0.00000000E+00  0.00000000E+00
  0.00000000E+00  0.00000000E+00  0.00000000E+00
  0.00000000E+00  0.00000000E+00  0.00000000E+00
  0.00000000E+00  0.00000000E+00  0.00000000E+00
  0.00000000E+00  0.00000000E+00  0.00000000E+00
  0.00000000E+00  0.00000000E+00  0.00000000E+00
  0.00000000E+00  0.00000000E+00  0.00000000E+00
