FCC Cu                                  
   1.00000000000000     
     7.2600002289000001    0.0000000000000000    0.0000000000000000
     0.0000000000000000    5.1335954666000001    0.0000000000000000
     0.0000000000000000    0.0000000000000000   21.4169939999999990
   Cu
    24
Selective dynamics
Cartesian
0.0 0.0 0.0
0.0 2.5667977330000187 0.0
3.630000114000021 0.0 0.0
3.630000114000021 2.5667977330000187 0.0
1.8150000569999842 1.283398866999991 1.2833988289999887
1.8150000569999842 3.850196600000009 1.2833988289999887
5.445000171000005 1.283398866999991 1.2833988289999887
5.445000171000005 3.850196600000009 1.2833988289999887
-0.0 0.0 2.541015998317227
0.0 2.5667977330000187 2.541015998317227
3.630000114000021 -0.0 2.541015998317227
3.630000114000021 2.5667977330000187 2.541015998317227
1.8150000569999842 1.283398866999991 3.7579994234845753
1.8150000569999842 3.850196600000009 3.7579994234845753
5.445000171000005 1.283398866999991 3.7579994234845753
5.445000171000005 3.850196600000009 3.7579994234845753
0.0 -0.0 5.072965997098011
0.0 2.5667977330000187 5.072965997098011
3.630000114000021 -0.0 5.072965997098011
3.630000114000021 2.5667977330000187 5.072965997098011
1.8150000569999842 1.283398866999991 6.21847193003269
1.8150000569999842 3.850196600000009 6.21847193003269
5.445000171000005 1.283398866999991 6.21847193003269
5.445000171000005 3.850196600000009 6.21847193003269
