FCC Cu                                  
   1.00000000000000     
    10.8900003433000006    0.0000000000000000    0.0000000000000000
     0.0000000000000000    7.7003931998999997    0.0000000000000000
     0.0000000000000000    0.0000000000000000   21.4169939999999990
   Cu
    54
Selective dynamics
Cartesian
0.0 0.0 0.0
0.0 2.566797733000018 0.0
0.0 5.133595467 0.0
3.6300001139999645 0.0 0.0
3.6300001139999645 2.566797733000018 0.0
3.6300001139999645 5.133595467 0.0
7.260000228999964 0.0 0.0
7.260000228999964 2.566797733000018 0.0
7.260000228999964 5.133595467 0.0
1.8150000569999822 1.2833988669999907 1.2833988289999887
1.8150000569999822 3.850196600000009 1.2833988289999887
1.8150000569999822 6.416994333999991 1.2833988289999887
5.445000171000024 1.2833988669999907 1.2833988289999887
5.445000171000024 3.850196600000009 1.2833988289999887
5.445000171000024 6.416994333999991 1.2833988289999887
9.075000286000023 1.2833988669999907 1.2833988289999887
9.075000286000023 3.850196600000009 1.2833988289999887
9.075000286000023 6.416994333999991 1.2833988289999887
0.0 0.0 2.545484827433009
0.0 2.566797733000018 2.545484827433009
0.0 5.133595467 2.545484827433009
3.6300001139999645 0.0 2.545484827433009
3.6300001139999645 2.566797733000018 2.545484827433009
3.6300001139999645 5.133595467 2.545484827433009
7.260000228999964 0.0 2.545484827433009
7.260000228999964 2.566797733000018 2.545484827433009
7.260000228999964 5.133595467 2.545484827433009
1.8150000569999822 1.2833988669999907 3.780778889948823
1.8150000569999822 3.850196600000009 3.780778889948823
1.8150000569999822 6.416994333999991 3.780778889948823
5.445000171000024 1.2833988669999907 3.780778889948823
5.445000171000024 3.850196600000009 3.780778889948823
5.445000171000024 6.416994333999991 3.780778889948823
9.075000286000023 1.2833988669999907 3.780778889948823
9.075000286000023 3.850196600000009 3.780778889948823
9.075000286000023 6.416994333999991 3.780778889948823
0.0 0.0 5.106997085469417
0.0 2.566797733000018 5.106997085469417
0.0 5.133595467 5.106997085469417
3.6300001139999645 0.0 5.106997085469417
3.6300001139999645 2.566797733000018 5.106997085469417
3.6300001139999645 5.133595467 5.106997085469417
7.260000228999964 0.0 5.106997085469417
7.260000228999964 2.566797733000018 5.106997085469417
7.260000228999964 5.133595467 5.106997085469417
1.8150000569999822 1.2833988669999907 6.250333851979482
1.8150000569999822 3.850196600000009 6.250333851979482
1.8150000569999822 6.416994333999991 6.250333851979482
5.445000171000024 1.2833988669999907 6.250333851979482
5.445000171000024 3.850196600000009 6.250333851979482
5.445000171000024 6.416994333999991 6.250333851979482
9.075000286000023 1.2833988669999907 6.250333851979482
9.075000286000023 3.850196600000009 6.250333851979482
9.075000286000023 6.416994333999991 6.250333851979482
