FCC Cu                                  
1.0
        3.6300001144         0.0000000000         0.0000000000
        0.0000000000         3.6300001144         0.0000000000
        0.0000000000         0.0000000000        25.8899993896
   Cu
   14
Cartesian
     0.000000000         0.000000000         0.000000000
     1.815000057         1.815000057         0.000000000
     0.000000000         1.815000057         1.814999983
     1.815000057         0.000000000         1.814999983
     0.000000000         0.000000000         3.555734727
     1.815000057         1.815000057         3.555734727
     0.000000000         1.815000057         5.280003692
     1.815000057         0.000000000         5.280003692
     0.000000000         0.000000000         7.007235345
     1.815000057         1.815000057         7.007235345
     0.000000000         1.815000057         8.759675251
     1.815000057         0.000000000         8.759675251
     0.000000000         0.000000000        10.514672027
     1.815000057         1.815000057        10.514672027
