FCC Cu                                  
   1.00000000000000     
     7.2600002289000001    0.0000000000000000    0.0000000000000000
     0.0000000000000000    5.1335954666000001    0.0000000000000000
     0.0000000000000000    0.0000000000000000   22.7003929999999983
   Cu
    28
Selective dynamics
Direct
  0.0000000000000000  0.0000000000000000  0.0000000000000000   F   F   F
  0.0000000000000000  0.4999999999415650  0.0000000000000000   F   F   F
  0.4999999999380194  0.0000000000000000  0.0000000000000000   F   F   F
  0.4999999999380194  0.4999999999415650  0.0000000000000000   F   F   F
  0.2499999999690061  0.2500000000681766  0.0565364145457750   F   F   F
  0.2499999999690061  0.7500000000097415  0.0565364145457750   F   F   F
  0.7499999999070255  0.2500000000681766  0.0565364145457750   F   F   F
  0.7499999999070255  0.7500000000097415  0.0565364145457750   F   F   F
  0.0000000000000000  0.0000000000000000  0.1108656885088195   T   T   T
 -0.0000000000000000  0.4999999999415650  0.1108656885088195   T   T   T
  0.4999999999380194 -0.0000000000000000  0.1108656885088195   T   T   T
  0.4999999999380194  0.4999999999415650  0.1108656885088195   T   T   T
  0.2499999999690061  0.2500000000681766  0.1658041120324429   T   T   T
  0.2499999999690061  0.7500000000097415  0.1658041120324429   T   T   T
  0.7499999999070255  0.2500000000681766  0.1658041120324429   T   T   T
  0.7499999999070255  0.7500000000097415  0.1658041120324429   T   T   T
  0.0000000000000000 -0.0000000000000000  0.2192605561848627   T   T   T
  0.0000000000000000  0.4999999999415650  0.2192605561848627   T   T   T
  0.4999999999380194 -0.0000000000000000  0.2192605561848627   T   T   T
  0.4999999999380194  0.4999999999415650  0.2192605561848627   T   T   T
  0.2499999999690061  0.2500000000681766  0.2766998271449255   T   T   T
  0.2499999999690061  0.7500000000097415  0.2766998271449255   T   T   T
  0.7499999999070255  0.2500000000681766  0.2766998271449255   T   T   T
  0.7499999999070255  0.7500000000097415  0.2766998271449255   T   T   T
 -0.0000000000000000 -0.0000000000000000  0.3271483491758293   T   T   T
 -0.0000000000000000  0.4999999999415650  0.3271483491758293   T   T   T
  0.4999999999380194 -0.0000000000000000  0.3271483491758293   T   T   T
  0.4999999999380194  0.4999999999415650  0.3271483491758293   T   T   T
 
  0.00000000E+00  0.00000000E+00  0.00000000E+00
  0.00000000E+00  0.00000000E+00  0.00000000E+00
  0.00000000E+00  0.00000000E+00  0.00000000E+00
  0.00000000E+00  0.00000000E+00  0.00000000E+00
  0.00000000E+00  0.00000000E+00  0.00000000E+00
  0.00000000E+00  0.00000000E+00  0.00000000E+00
  0.00000000E+00  0.00000000E+00  0.00000000E+00
  0.00000000E+00  0.00000000E+00  0.00000000E+00
  0.00000000E+00  0.00000000E+00  0.00000000E+00
  0.00000000E+00  0.00000000E+00  0.00000000E+00
  0.00000000E+00  0.00000000E+00  0.00000000E+00
  0.00000000E+00  0.00000000E+00  0.00000000E+00
  0.00000000E+00  0.00000000E+00  0.00000000E+00
  0.00000000E+00  0.00000000E+00  0.00000000E+00
  0.00000000E+00  0.00000000E+00  0.00000000E+00
  0.00000000E+00  0.00000000E+00  0.00000000E+00
  0.00000000E+00  0.00000000E+00  0.00000000E+00
  0.00000000E+00  0.00000000E+00  0.00000000E+00
  0.00000000E+00  0.00000000E+00  0.00000000E+00
  0.00000000E+00  0.00000000E+00  0.00000000E+00
  0.00000000E+00  0.00000000E+00  0.00000000E+00
  0.00000000E+00  0.00000000E+00  0.00000000E+00
  0.00000000E+00  0.00000000E+00  0.00000000E+00
  0.00000000E+00  0.00000000E+00  0.00000000E+00
  0.00000000E+00  0.00000000E+00  0.00000000E+00
  0.00000000E+00  0.00000000E+00  0.00000000E+00
  0.00000000E+00  0.00000000E+00  0.00000000E+00
  0.00000000E+00  0.00000000E+00  0.00000000E+00
