FCC Cu                                  
   1.00000000000000     
    10.8900003433000006    0.0000000000000000    0.0000000000000000
     0.0000000000000000    7.7003931998999997    0.0000000000000000
     0.0000000000000000    0.0000000000000000   20.1335949999999997
   Cu
    45
Selective dynamics
Cartesian
0.0 0.0 0.0
0.0 2.566797733000018 0.0
0.0 5.133595467 0.0
3.6300001139999645 0.0 0.0
3.6300001139999645 2.566797733000018 0.0
3.6300001139999645 5.133595467 0.0
7.260000228999964 0.0 0.0
7.260000228999964 2.566797733000018 0.0
7.260000228999964 5.133595467 0.0
1.8150000569999822 1.2833988669999907 1.2833988290000176
1.8150000569999822 3.850196600000009 1.2833988290000176
1.8150000569999822 6.416994333999991 1.2833988290000176
5.445000171000024 1.2833988669999907 1.2833988290000176
5.445000171000024 3.850196600000009 1.2833988290000176
5.445000171000024 6.416994333999991 1.2833988290000176
9.075000286000023 1.2833988669999907 1.2833988290000176
9.075000286000023 3.850196600000009 1.2833988290000176
9.075000286000023 6.416994333999991 1.2833988290000176
0.0 0.0 2.514922931515159
-0.0 2.566797733000018 2.514922931515159
-0.0 5.133595467 2.514922931515159
3.6300001139999645 0.0 2.514922931515159
3.6300001139999645 2.566797733000018 2.514922931515159
3.6300001139999645 5.133595467 2.514922931515159
7.260000228999964 0.0 2.514922931515159
7.260000228999964 2.566797733000018 2.514922931515159
7.260000228999964 5.133595467 2.514922931515159
1.8150000569999822 1.2833988669999907 3.8417487808036106
1.8150000569999822 3.850196600000009 3.8417487808036106
1.8150000569999822 6.416994333999991 3.8417487808036106
5.445000171000024 1.2833988669999907 3.8417487808036106
5.445000171000024 3.850196600000009 3.8417487808036106
5.445000171000024 6.416994333999991 3.8417487808036106
9.075000286000023 1.2833988669999907 3.8417487808036106
9.075000286000023 3.850196600000009 3.8417487808036106
9.075000286000023 6.416994333999991 3.8417487808036106
-0.0 0.0 4.978655602851696
0.0 2.566797733000018 4.978655602851696
0.0 5.133595467 4.978655602851696
3.6300001139999645 0.0 4.978655602851696
3.6300001139999645 2.566797733000018 4.978655602851696
3.6300001139999645 5.133595467 4.978655602851696
7.260000228999964 0.0 4.978655602851696
7.260000228999964 2.566797733000018 4.978655602851696
7.260000228999964 5.133595467 4.978655602851696
