FCC Cu                                  
1.0
        2.5667977333         0.0000000000         0.0000000000
        1.2833988667         2.2229120434         0.0000000000
        0.0000000000         0.0000000000        29.6704711914
   Cu
    8
Cartesian
     0.000000000         0.000000000         0.000000000
     1.283398867         0.740970681         2.095781568
     2.566797733         1.481941362         4.126745322
     0.000000000         0.000000000         6.176357075
     1.283398867         0.740970681         8.205736584
     2.566797733         1.481941362        10.252938079
     0.000000000         0.000000000        12.283751143
     1.283398867         0.740970681        14.283148088
