FCC Cu                                  
   1.00000000000000     
     2.5667977333000001    0.0000000000000000    0.0000000000000000
     1.2833988667000000    2.2229120434000000    0.0000000000000000
     0.0000000000000000    0.0000000000000000   29.6704711914000008
   Cu   H 
     8     2
Direct
 -0.0000600526067070  0.0001201052134140  0.0009048460028065
  0.3333319179945748  0.3333361642705751  0.0681969614578977
  0.6666805015835342  0.6666389965732001  0.1363500623744900
  0.0001472469458955 -0.0002944938917910  0.2048525231746124
  0.3333969339403249  0.3332061323790749  0.2726456184229515
  0.6668608227205375  0.6662783542991935  0.3410589660751492
  0.0000697892097372 -0.0001395784194745  0.4090580380754777
  0.3334636180877157  0.3330727640842932  0.4761471339113207
  0.8324430480252842  0.3351139040922792  0.5471078942961918
  0.8336661748216680  0.3326676504995110  0.5727470860734775
 
  0.00000000E+00  0.00000000E+00  0.00000000E+00
  0.00000000E+00  0.00000000E+00  0.00000000E+00
  0.00000000E+00  0.00000000E+00  0.00000000E+00
  0.00000000E+00  0.00000000E+00  0.00000000E+00
  0.00000000E+00  0.00000000E+00  0.00000000E+00
  0.00000000E+00  0.00000000E+00  0.00000000E+00
  0.00000000E+00  0.00000000E+00  0.00000000E+00
  0.00000000E+00  0.00000000E+00  0.00000000E+00
  0.00000000E+00  0.00000000E+00  0.00000000E+00
  0.00000000E+00  0.00000000E+00  0.00000000E+00
