FCC Cu                                  
   1.00000000000000     
    10.8900003433000006    0.0000000000000000    0.0000000000000000
     0.0000000000000000   10.8900003433000006    0.0000000000000000
     0.0000000000000000    0.0000000000000000   25.8900000000000006
   Cu
   126
Selective dynamics
Cartesian
0.0 0.0 0.0
0.0 3.6300001139999645 0.0
0.0 7.260000228999964 0.0
3.6300001139999645 0.0 0.0
3.6300001139999645 3.6300001139999645 0.0
3.6300001139999645 7.260000228999964 0.0
7.260000228999964 0.0 0.0
7.260000228999964 3.6300001139999645 0.0
7.260000228999964 7.260000228999964 0.0
1.8150000569999822 1.8150000569999822 0.0
1.8150000569999822 5.445000171000024 0.0
1.8150000569999822 9.075000286000023 0.0
5.445000171000024 1.8150000569999822 0.0
5.445000171000024 5.445000171000024 0.0
5.445000171000024 9.075000286000023 0.0
9.075000286000023 1.8150000569999822 0.0
9.075000286000023 5.445000171000024 0.0
9.075000286000023 9.075000286000023 0.0
0.0 1.8150000569999822 1.81500002600003
0.0 5.445000171000024 1.81500002600003
0.0 9.075000286000023 1.81500002600003
3.6300001139999645 1.8150000569999822 1.81500002600003
3.6300001139999645 5.445000171000024 1.81500002600003
3.6300001139999645 9.075000286000023 1.81500002600003
7.260000228999964 1.8150000569999822 1.81500002600003
7.260000228999964 5.445000171000024 1.81500002600003
7.260000228999964 9.075000286000023 1.81500002600003
1.8150000569999822 0.0 1.81500002600003
1.8150000569999822 3.6300001139999645 1.81500002600003
1.8150000569999822 7.260000228999964 1.81500002600003
5.445000171000024 0.0 1.81500002600003
5.445000171000024 3.6300001139999645 1.81500002600003
5.445000171000024 7.260000228999964 1.81500002600003
9.075000286000023 0.0 1.81500002600003
9.075000286000023 3.6300001139999645 1.81500002600003
9.075000286000023 7.260000228999964 1.81500002600003
-0.0 0.0 3.5831450188221385
0.0 3.6300001139999645 3.5831450188221385
-0.0 7.260000228999964 3.5831450188221385
3.6300001139999645 -0.0 3.5831450188221385
3.6300001139999645 3.6300001139999645 3.5831450188221385
3.6300001139999645 7.260000228999964 3.5831450188221385
7.260000228999964 0.0 3.5831450188221385
7.260000228999964 3.6300001139999645 3.5831450188221385
7.260000228999964 7.260000228999964 3.5831450188221385
1.8150000569999822 1.8150000569999822 3.5831450188221385
1.8150000569999822 5.445000171000024 3.5831450188221385
1.8150000569999822 9.075000286000023 3.5831450188221385
5.445000171000024 1.8150000569999822 3.5831450188221385
5.445000171000024 5.445000171000024 3.5831450188221385
5.445000171000024 9.075000286000023 3.5831450188221385
9.075000286000023 1.8150000569999822 3.5831450188221385
9.075000286000023 5.445000171000024 3.5831450188221385
9.075000286000023 9.075000286000023 3.5831450188221385
0.0 1.8150000569999822 5.337479864879529
0.0 5.445000171000024 5.337479864879529
0.0 9.075000286000023 5.337479864879529
3.6300001139999645 1.8150000569999822 5.337479864879529
3.6300001139999645 5.445000171000024 5.337479864879529
3.6300001139999645 9.075000286000023 5.337479864879529
7.260000228999964 1.8150000569999822 5.337479864879529
7.260000228999964 5.445000171000024 5.337479864879529
7.260000228999964 9.075000286000023 5.337479864879529
1.8150000569999822 0.0 5.337479864879529
1.8150000569999822 3.6300001139999645 5.337479864879529
1.8150000569999822 7.260000228999964 5.337479864879529
5.445000171000024 -0.0 5.337479864879529
5.445000171000024 3.6300001139999645 5.337479864879529
5.445000171000024 7.260000228999964 5.337479864879529
9.075000286000023 -0.0 5.337479864879529
9.075000286000023 3.6300001139999645 5.337479864879529
9.075000286000023 7.260000228999964 5.337479864879529
-0.0 0.0 7.085180349429352
-0.0 3.6300001139999645 7.085180349429352
-0.0 7.260000228999964 7.085180349429352
3.6300001139999645 0.0 7.085180349429352
3.6300001139999645 3.6300001139999645 7.085180349429352
3.6300001139999645 7.260000228999964 7.085180349429352
7.260000228999964 0.0 7.085180349429352
7.260000228999964 3.6300001139999645 7.085180349429352
7.260000228999964 7.260000228999964 7.085180349429352
1.8150000569999822 1.8150000569999822 7.085180349429352
1.8150000569999822 5.445000171000024 7.085180349429352
1.8150000569999822 9.075000286000023 7.085180349429352
5.445000171000024 1.8150000569999822 7.085180349429352
5.445000171000024 5.445000171000024 7.085180349429352
5.445000171000024 9.075000286000023 7.085180349429352
9.075000286000023 1.8150000569999822 7.085180349429352
9.075000286000023 5.445000171000024 7.085180349429352
9.075000286000023 9.075000286000023 7.085180349429352
-0.0 1.8150000569999822 8.847718078098149
-0.0 5.445000171000024 8.847718078098149
-0.0 9.075000286000023 8.847718078098149
3.6300001139999645 1.8150000569999822 8.847718078098149
3.6300001139999645 5.445000171000024 8.847718078098149
3.6300001139999645 9.075000286000023 8.847718078098149
7.260000228999964 1.8150000569999822 8.847718078098149
7.260000228999964 5.445000171000024 8.847718078098149
7.260000228999964 9.075000286000023 8.847718078098149
1.8150000569999822 -0.0 8.847718078098149
1.8150000569999822 3.6300001139999645 8.847718078098149
1.8150000569999822 7.260000228999964 8.847718078098149
5.445000171000024 -0.0 8.847718078098149
5.445000171000024 3.6300001139999645 8.847718078098149
5.445000171000024 7.260000228999964 8.847718078098149
9.075000286000023 -0.0 8.847718078098149
9.075000286000023 3.6300001139999645 8.847718078098149
9.075000286000023 7.260000228999964 8.847718078098149
0.0 0.0 10.581156431447663
0.0 3.6300001139999645 10.581156431447663
-0.0 7.260000228999964 10.581156431447663
3.6300001139999645 0.0 10.581156431447663
3.6300001139999645 3.6300001139999645 10.581156431447663
3.6300001139999645 7.260000228999964 10.581156431447663
7.260000228999964 -0.0 10.581156431447663
7.260000228999964 3.6300001139999645 10.581156431447663
7.260000228999964 7.260000228999964 10.581156431447663
1.8150000569999822 1.8150000569999822 10.581156431447663
1.8150000569999822 5.445000171000024 10.581156431447663
1.8150000569999822 9.075000286000023 10.581156431447663
5.445000171000024 1.8150000569999822 10.581156431447663
5.445000171000024 5.445000171000024 10.581156431447663
5.445000171000024 9.075000286000023 10.581156431447663
9.075000286000023 1.8150000569999822 10.581156431447663
9.075000286000023 5.445000171000024 10.581156431447663
9.075000286000023 9.075000286000023 10.581156431447663
