FCC Cu                                  
   1.00000000000000     
     3.6300001144000000    0.0000000000000000    0.0000000000000000
     0.0000000000000000    2.5667977333000001    0.0000000000000000
     0.0000000000000000    0.0000000000000000   23.9837913512999990
   Cu   H 
     8     2
Direct
  0.0000000000000000 -0.0008463475501661 -0.0000927696732807
  0.4999999999449045  0.4989257144460478  0.0471901137469210
  0.0000000000000000 -0.0016117275701988  0.1012750681733865
  0.4999999999449045  0.4974376951365547  0.1534655847514704
  0.0000000000000000 -0.0041370343168713  0.2060780374824340
  0.4999999999449045  0.4935446976554934  0.2580977395923396
  0.0000000000000000 -0.0087220253058702  0.3123518462714284
  0.4999999999449045  0.4908165509211881  0.3591292969923725
  0.9999999999173639  0.0910532216403589  0.4393907879631684
  0.9999999999173639  0.1490488881029644  0.4704380332893544
 
  0.00000000E+00  0.00000000E+00  0.00000000E+00
  0.00000000E+00  0.00000000E+00  0.00000000E+00
  0.00000000E+00  0.00000000E+00  0.00000000E+00
  0.00000000E+00  0.00000000E+00  0.00000000E+00
  0.00000000E+00  0.00000000E+00  0.00000000E+00
  0.00000000E+00  0.00000000E+00  0.00000000E+00
  0.00000000E+00  0.00000000E+00  0.00000000E+00
  0.00000000E+00  0.00000000E+00  0.00000000E+00
  0.00000000E+00  0.00000000E+00  0.00000000E+00
  0.00000000E+00  0.00000000E+00  0.00000000E+00
