FCC Cu                                  
1.0
        5.1335954666         0.0000000000         0.0000000000
        2.5667977333         4.4458240868         0.0000000000
        0.0000000000         0.0000000000        23.3831253052
   Cu
   20
Cartesian
     0.000000000         0.000000000         0.000000000
     1.283398866         2.222912043         0.000000000
     2.566797733         0.000000000         0.000000000
     3.850196600         2.222912043         0.000000000
     1.283398867         0.740970681         2.095781461
     2.566797734         2.963882724         2.095781461
     3.850196600         0.740970681         2.095781461
     5.133595467         2.963882724         2.095781461
     2.566797733         1.481941362         4.104125041
     3.850196600         3.704853405         4.104125041
     5.133595466         1.481941362         4.104125041
     6.416994333         3.704853405         4.104125041
     0.000000000         0.000000000         6.108890400
     1.283398866         2.222912043         6.108890400
     2.566797733         0.000000000         6.108890400
     3.850196600         2.222912043         6.108890400
     1.283398867         0.740970681         8.152039113
     2.566797734         2.963882724         8.152039113
     3.850196600         0.740970681         8.152039113
     5.133595467         2.963882724         8.152039113
