FCC Cu                                  
   1.00000000000000     
     7.2600002289000001    0.0000000000000000    0.0000000000000000
     0.0000000000000000    7.2600002289000001    0.0000000000000000
     0.0000000000000000    0.0000000000000000   27.7049999237000009
   Cu   H 
    64     2
Direct
 -0.0000000000000000 -0.0000000000000000  0.0079137039673918
 -0.0000000000000000  0.4999999999380194  0.0078988958115064
  0.4999999999380194 -0.0000000000000000  0.0078988958115064
  0.4999999999380194  0.4999999999380194  0.0078901946447228
  0.2500600024633831  0.2500600024633831  0.0079164844138867
  0.2500600024633831  0.7499399974126487  0.0079164844138867
  0.7499399974126487  0.2500600024633831  0.0079164844138867
  0.7499399974126487  0.7499399974126487  0.0079164844138867
 -0.0000000000000000  0.2500315087561694  0.0701937904589434
 -0.0000000000000000  0.7499684911198623  0.0701937904589434
  0.4999999999380194  0.2499177781141614  0.0701856014620174
  0.4999999999380194  0.7500822217618702  0.0701856014620174
  0.2500315087561694 -0.0000000000000000  0.0701937904589434
  0.2499177781141614  0.4999999999380194  0.0701856014620174
  0.7499684911198623 -0.0000000000000000  0.0701937904589434
  0.7500822217618702  0.4999999999380194  0.0701856014620174
 -0.0000000000000000 -0.0000000000000000  0.1338191058221069
 -0.0000000000000000  0.4999999999380194  0.1337413406116214
  0.4999999999380194 -0.0000000000000000  0.1337413406116214
  0.4999999999380194  0.4999999999380194  0.1336825243977642
  0.2500320348554897  0.2500320348554897  0.1337623289019560
  0.2500320348554897  0.7499679650205421  0.1337623289019560
  0.7499679650205421  0.2500320348554897  0.1337623289019560
  0.7499679650205421  0.7499679650205421  0.1337623289019560
 -0.0000000000000000  0.2500324562864771  0.1965748754520488
 -0.0000000000000000  0.7499675435895544  0.1965748754520488
  0.4999999999380194  0.2502346456225419  0.1965817198999366
  0.4999999999380194  0.7497653542534903  0.1965817198999366
  0.2500324562864771 -0.0000000000000000  0.1965748754520488
  0.2502346456225419  0.4999999999380194  0.1965817198999366
  0.7499675435895544 -0.0000000000000000  0.1965748754520488
  0.7497653542534903  0.4999999999380194  0.1965817198999366
 -0.0000000000000000 -0.0000000000000000  0.2591298278912265
 -0.0000000000000000  0.4999999999380194  0.2590848370408926
  0.4999999999380194 -0.0000000000000000  0.2590848370408926
  0.4999999999380194  0.4999999999380194  0.2592544195423706
  0.2499239631876684  0.2499239631876684  0.2591594683744326
  0.2499239631876684  0.7500760366883632  0.2591594683744326
  0.7500760366883632  0.2499239631876684  0.2591594683744326
  0.7500760366883632  0.7500760366883632  0.2591594683744326
 -0.0000000000000000  0.2498494423814717  0.3219905195628165
 -0.0000000000000000  0.7501505574945601  0.3219905195628165
  0.4999999999380194  0.2498186108568748  0.3218932889519120
  0.4999999999380194  0.7501813890191564  0.3218932889519120
  0.2498494423814717 -0.0000000000000000  0.3219905195628165
  0.2498186108568748  0.4999999999380194  0.3218932889519120
  0.7501505574945601 -0.0000000000000000  0.3219905195628165
  0.7501813890191564  0.4999999999380194  0.3218932889519120
 -0.0000000000000000 -0.0000000000000000  0.3856809054957030
 -0.0000000000000000  0.4999999999380194  0.3856781741200846
  0.4999999999380194 -0.0000000000000000  0.3856781741200846
  0.4999999999380194  0.4999999999380194  0.3855574035631713
  0.2500315354464023  0.2500315354464023  0.3856801146655521
  0.2500315354464023  0.7499684644296302  0.3856801146655521
  0.7499684644296302  0.2500315354464023  0.3856801146655521
  0.7499684644296302  0.7499684644296302  0.3856801146655521
 -0.0000000000000000  0.2499024480164246  0.4479329750619547
 -0.0000000000000000  0.7500975518596068  0.4479329750619547
  0.4999999999380194  0.2493294231365082  0.4477042946533489
  0.4999999999380194  0.7506705767395236  0.4477042946533489
  0.2499024480164246 -0.0000000000000000  0.4479329750619547
  0.2493294231365082  0.4999999999380194  0.4477042946533489
  0.7500975518596068 -0.0000000000000000  0.4479329750619547
  0.7506705767395236  0.4999999999380194  0.4477042946533489
  0.4999999999380194  0.4999999999380123  0.5291682104657932
  0.4999999999380194  0.4999999999380123  0.5565739044548419
 
  0.00000000E+00  0.00000000E+00  0.00000000E+00
  0.00000000E+00  0.00000000E+00  0.00000000E+00
  0.00000000E+00  0.00000000E+00  0.00000000E+00
  0.00000000E+00  0.00000000E+00  0.00000000E+00
  0.00000000E+00  0.00000000E+00  0.00000000E+00
  0.00000000E+00  0.00000000E+00  0.00000000E+00
  0.00000000E+00  0.00000000E+00  0.00000000E+00
  0.00000000E+00  0.00000000E+00  0.00000000E+00
  0.00000000E+00  0.00000000E+00  0.00000000E+00
  0.00000000E+00  0.00000000E+00  0.00000000E+00
  0.00000000E+00  0.00000000E+00  0.00000000E+00
  0.00000000E+00  0.00000000E+00  0.00000000E+00
  0.00000000E+00  0.00000000E+00  0.00000000E+00
  0.00000000E+00  0.00000000E+00  0.00000000E+00
  0.00000000E+00  0.00000000E+00  0.00000000E+00
  0.00000000E+00  0.00000000E+00  0.00000000E+00
  0.00000000E+00  0.00000000E+00  0.00000000E+00
  0.00000000E+00  0.00000000E+00  0.00000000E+00
  0.00000000E+00  0.00000000E+00  0.00000000E+00
  0.00000000E+00  0.00000000E+00  0.00000000E+00
  0.00000000E+00  0.00000000E+00  0.00000000E+00
  0.00000000E+00  0.00000000E+00  0.00000000E+00
  0.00000000E+00  0.00000000E+00  0.00000000E+00
  0.00000000E+00  0.00000000E+00  0.00000000E+00
  0.00000000E+00  0.00000000E+00  0.00000000E+00
  0.00000000E+00  0.00000000E+00  0.00000000E+00
  0.00000000E+00  0.00000000E+00  0.00000000E+00
  0.00000000E+00  0.00000000E+00  0.00000000E+00
  0.00000000E+00  0.00000000E+00  0.00000000E+00
  0.00000000E+00  0.00000000E+00  0.00000000E+00
  0.00000000E+00  0.00000000E+00  0.00000000E+00
  0.00000000E+00  0.00000000E+00  0.00000000E+00
  0.00000000E+00  0.00000000E+00  0.00000000E+00
  0.00000000E+00  0.00000000E+00  0.00000000E+00
  0.00000000E+00  0.00000000E+00  0.00000000E+00
  0.00000000E+00  0.00000000E+00  0.00000000E+00
  0.00000000E+00  0.00000000E+00  0.00000000E+00
  0.00000000E+00  0.00000000E+00  0.00000000E+00
  0.00000000E+00  0.00000000E+00  0.00000000E+00
  0.00000000E+00  0.00000000E+00  0.00000000E+00
  0.00000000E+00  0.00000000E+00  0.00000000E+00
  0.00000000E+00  0.00000000E+00  0.00000000E+00
  0.00000000E+00  0.00000000E+00  0.00000000E+00
  0.00000000E+00  0.00000000E+00  0.00000000E+00
  0.00000000E+00  0.00000000E+00  0.00000000E+00
  0.00000000E+00  0.00000000E+00  0.00000000E+00
  0.00000000E+00  0.00000000E+00  0.00000000E+00
  0.00000000E+00  0.00000000E+00  0.00000000E+00
  0.00000000E+00  0.00000000E+00  0.00000000E+00
  0.00000000E+00  0.00000000E+00  0.00000000E+00
  0.00000000E+00  0.00000000E+00  0.00000000E+00
  0.00000000E+00  0.00000000E+00  0.00000000E+00
  0.00000000E+00  0.00000000E+00  0.00000000E+00
  0.00000000E+00  0.00000000E+00  0.00000000E+00
  0.00000000E+00  0.00000000E+00  0.00000000E+00
  0.00000000E+00  0.00000000E+00  0.00000000E+00
  0.00000000E+00  0.00000000E+00  0.00000000E+00
  0.00000000E+00  0.00000000E+00  0.00000000E+00
  0.00000000E+00  0.00000000E+00  0.00000000E+00
  0.00000000E+00  0.00000000E+00  0.00000000E+00
  0.00000000E+00  0.00000000E+00  0.00000000E+00
  0.00000000E+00  0.00000000E+00  0.00000000E+00
  0.00000000E+00  0.00000000E+00  0.00000000E+00
  0.00000000E+00  0.00000000E+00  0.00000000E+00
  0.00000000E+00  0.00000000E+00  0.00000000E+00
  0.00000000E+00  0.00000000E+00  0.00000000E+00
