FCC Cu                                  
   1.00000000000000     
     3.6300001144000000    0.0000000000000000    0.0000000000000000
     0.0000000000000000    2.5667977333000001    0.0000000000000000
     0.0000000000000000    0.0000000000000000   21.4169939999999990
   Cu
     6
Selective dynamics
Direct
  0.0000000000000000  0.0000000000000000  0.0000000000000000   F   F   F
  0.4999999999449045  0.5000000001363532  0.0599243230399154   F   F   F
  0.0000000000000000  0.0000000000000000  0.1180276147809583   T   T   T
  0.4999999999449045  0.5000000001363532  0.1777990805476493   T   T   T
  0.0000000000000000  0.0000000000000000  0.2392825140403509   T   T   T
  0.4999999999449045  0.5000000001363532  0.2916034171040309   T   T   T
 
  0.00000000E+00  0.00000000E+00  0.00000000E+00
  0.00000000E+00  0.00000000E+00  0.00000000E+00
  0.00000000E+00  0.00000000E+00  0.00000000E+00
  0.00000000E+00  0.00000000E+00  0.00000000E+00
  0.00000000E+00  0.00000000E+00  0.00000000E+00
  0.00000000E+00  0.00000000E+00  0.00000000E+00
