FCC Cu                                  
1.0
        3.6300001144         0.0000000000         0.0000000000
        0.0000000000         2.5667977333         0.0000000000
        0.0000000000         0.0000000000        21.4169940948
   Cu
    6
Cartesian
     0.000000000         0.000000000         0.000000000
     1.815000057         1.283398867         1.283398873
     0.000000000         0.000000000         2.527796729
     1.815000057         1.283398867         3.807921858
     0.000000000         0.000000000         5.124712190
     1.815000057         1.283398867         6.245268662
