FCC Cu                                  
   1.00000000000000     
     2.5667977333000001    0.0000000000000000    0.0000000000000000
     1.2833988667000000    2.2229120434000000    0.0000000000000000
     0.0000000000000000    0.0000000000000000   29.6704711914000008
   Cu   H 
     8     2
Direct
  0.0000000000000000 -0.0000000000000000  0.0009272474718758
  0.3333333334931865  0.3333333332733517  0.0681244774217199
  0.6666666665967824  0.6666666665467034  0.1360903294515567
 -0.0000000000000000 -0.0000000000000000  0.2042870260956542
  0.3333333334931865  0.3333333332733517  0.2720561306802566
  0.6666666665967824  0.6666666665467034  0.3403471510376597
 -0.0000000000000000  0.0000000000000000  0.4082326119696533
  0.3333333334931865  0.3333333332733517  0.4753016110234574
  0.0000000002328235  0.9999999998200551  0.5490805625294406
  0.0000000002328235  0.9999999998200551  0.5746219821831008
 
  0.00000000E+00  0.00000000E+00  0.00000000E+00
  0.00000000E+00  0.00000000E+00  0.00000000E+00
  0.00000000E+00  0.00000000E+00  0.00000000E+00
  0.00000000E+00  0.00000000E+00  0.00000000E+00
  0.00000000E+00  0.00000000E+00  0.00000000E+00
  0.00000000E+00  0.00000000E+00  0.00000000E+00
  0.00000000E+00  0.00000000E+00  0.00000000E+00
  0.00000000E+00  0.00000000E+00  0.00000000E+00
  0.00000000E+00  0.00000000E+00  0.00000000E+00
  0.00000000E+00  0.00000000E+00  0.00000000E+00
