FCC Cu                                  
   1.00000000000000     
    10.8900003433000006    0.0000000000000000    0.0000000000000000
     0.0000000000000000    7.7003931998999997    0.0000000000000000
     0.0000000000000000    0.0000000000000000   23.9837913512999990
   Cu
    72
Selective dynamics
Direct
  0.0000000000000000  0.0000000000000000  0.0000000000000000   F   F   F
  0.0000000000000000  0.3333333332943766  0.0000000000000000   F   F   F
  0.0000000000000000  0.6666666667186121  0.0000000000000000   F   F   F
  0.3333333332935382  0.0000000000000000  0.0000000000000000   F   F   F
  0.3333333332935382  0.3333333332943766  0.0000000000000000   F   F   F
  0.3333333332935382  0.6666666667186121  0.0000000000000000   F   F   F
  0.6666666666789069  0.0000000000000000  0.0000000000000000   F   F   F
  0.6666666666789069  0.3333333332943766  0.0000000000000000   F   F   F
  0.6666666666789069  0.6666666667186121  0.0000000000000000   F   F   F
  0.0000000000000000  0.0000000000000000  0.1070221808721996   F   F   F
  0.0000000000000000  0.3333333332943766  0.1070221808721996   F   F   F
  0.0000000000000000  0.6666666667186121  0.1070221808721996   F   F   F
  0.3333333332935382  0.0000000000000000  0.1070221808721996   F   F   F
  0.3333333332935382  0.3333333332943766  0.1070221808721996   F   F   F
  0.3333333332935382  0.6666666667186121  0.1070221808721996   F   F   F
  0.6666666666789069  0.0000000000000000  0.1070221808721996   F   F   F
  0.6666666666789069  0.3333333332943766  0.1070221808721996   F   F   F
  0.6666666666789069  0.6666666667186121  0.1070221808721996   F   F   F
 -0.0000000000000000 -0.0000000000000000  0.2106720992185440   T   T   T
 -0.0000000000000000  0.3333333332943766  0.2106720992185440   T   T   T
  0.0000000000000000  0.6666666667186121  0.2106720992185440   T   T   T
  0.3333333332935382 -0.0000000000000000  0.2106720992185440   T   T   T
  0.3333333332935382  0.3333333332943766  0.2106720992185440   T   T   T
  0.3333333332935382  0.6666666667186121  0.2106720992185440   T   T   T
  0.6666666666789069 -0.0000000000000000  0.2106720992185440   T   T   T
  0.6666666666789069  0.3333333332943766  0.2106720992185440   T   T   T
  0.6666666666789069  0.6666666667186121  0.2106720992185440   T   T   T
  0.0000000000000000 -0.0000000000000000  0.3167073455533198   T   T   T
  0.0000000000000000  0.3333333332943766  0.3167073455533198   T   T   T
  0.0000000000000000  0.6666666667186121  0.3167073455533198   T   T   T
  0.3333333332935382 -0.0000000000000000  0.3167073455533198   T   T   T
  0.3333333332935382  0.3333333332943766  0.3167073455533198   T   T   T
  0.3333333332935382  0.6666666667186121  0.3167073455533198   T   T   T
  0.6666666666789069 -0.0000000000000000  0.3167073455533198   T   T   T
  0.6666666666789069  0.3333333332943766  0.3167073455533198   T   T   T
  0.6666666666789069  0.6666666667186121  0.3167073455533198   T   T   T
  0.1666666666467691  0.1666666667121177  0.0498548618612848   T   T   T
  0.1666666666467691  0.5000000000064944  0.0498548618612848   T   T   T
  0.1666666666467691  0.8333333334307298  0.0498548618612848   T   T   T
  0.4999999999403144  0.1666666667121177  0.0498548618612848   T   T   T
  0.4999999999403144  0.5000000000064944  0.0498548618612848   T   T   T
  0.4999999999403144  0.8333333334307298  0.0498548618612848   T   T   T
  0.8333333333256832  0.1666666667121177  0.0498548618612848   T   T   T
  0.8333333333256832  0.5000000000064944  0.0498548618612848   T   T   T
  0.8333333333256832  0.8333333334307298  0.0498548618612848   T   T   T
  0.1666666666467691  0.1666666667121177  0.1570800390453220   T   T   T
  0.1666666666467691  0.5000000000064944  0.1570800390453220   T   T   T
  0.1666666666467691  0.8333333334307298  0.1570800390453220   T   T   T
  0.4999999999403144  0.1666666667121177  0.1570800390453220   T   T   T
  0.4999999999403144  0.5000000000064944  0.1570800390453220   T   T   T
  0.4999999999403144  0.8333333334307298  0.1570800390453220   T   T   T
  0.8333333333256832  0.1666666667121177  0.1570800390453220   T   T   T
  0.8333333333256832  0.5000000000064944  0.1570800390453220   T   T   T
  0.8333333333256832  0.8333333334307298  0.1570800390453220   T   T   T
  0.1666666666467691  0.1666666667121177  0.2616539528596686   T   T   T
  0.1666666666467691  0.5000000000064944  0.2616539528596686   T   T   T
  0.1666666666467691  0.8333333334307298  0.2616539528596686   T   T   T
  0.4999999999403144  0.1666666667121177  0.2616539528596686   T   T   T
  0.4999999999403144  0.5000000000064944  0.2616539528596686   T   T   T
  0.4999999999403144  0.8333333334307298  0.2616539528596686   T   T   T
  0.8333333333256832  0.1666666667121177  0.2616539528596686   T   T   T
  0.8333333333256832  0.5000000000064944  0.2616539528596686   T   T   T
  0.8333333333256832  0.8333333334307298  0.2616539528596686   T   T   T
  0.1666666666467691  0.1666666667121177  0.3643656819415640   T   T   T
  0.1666666666467691  0.5000000000064944  0.3643656819415640   T   T   T
  0.1666666666467691  0.8333333334307298  0.3643656819415640   T   T   T
  0.4999999999403144  0.1666666667121177  0.3643656819415640   T   T   T
  0.4999999999403144  0.5000000000064944  0.3643656819415640   T   T   T
  0.4999999999403144  0.8333333334307298  0.3643656819415640   T   T   T
  0.8333333333256832  0.1666666667121177  0.3643656819415640   T   T   T
  0.8333333333256832  0.5000000000064944  0.3643656819415640   T   T   T
  0.8333333333256832  0.8333333334307298  0.3643656819415640   T   T   T
 
  0.00000000E+00  0.00000000E+00  0.00000000E+00
  0.00000000E+00  0.00000000E+00  0.00000000E+00
  0.00000000E+00  0.00000000E+00  0.00000000E+00
  0.00000000E+00  0.00000000E+00  0.00000000E+00
  0.00000000E+00  0.00000000E+00  0.00000000E+00
  0.00000000E+00  0.00000000E+00  0.00000000E+00
  0.00000000E+00  0.00000000E+00  0.00000000E+00
  0.00000000E+00  0.00000000E+00  0.00000000E+00
  0.00000000E+00  0.00000000E+00  0.00000000E+00
  0.00000000E+00  0.00000000E+00  0.00000000E+00
  0.00000000E+00  0.00000000E+00  0.00000000E+00
  0.00000000E+00  0.00000000E+00  0.00000000E+00
  0.00000000E+00  0.00000000E+00  0.00000000E+00
  0.00000000E+00  0.00000000E+00  0.00000000E+00
  0.00000000E+00  0.00000000E+00  0.00000000E+00
  0.00000000E+00  0.00000000E+00  0.00000000E+00
  0.00000000E+00  0.00000000E+00  0.00000000E+00
  0.00000000E+00  0.00000000E+00  0.00000000E+00
  0.00000000E+00  0.00000000E+00  0.00000000E+00
  0.00000000E+00  0.00000000E+00  0.00000000E+00
  0.00000000E+00  0.00000000E+00  0.00000000E+00
  0.00000000E+00  0.00000000E+00  0.00000000E+00
  0.00000000E+00  0.00000000E+00  0.00000000E+00
  0.00000000E+00  0.00000000E+00  0.00000000E+00
  0.00000000E+00  0.00000000E+00  0.00000000E+00
  0.00000000E+00  0.00000000E+00  0.00000000E+00
  0.00000000E+00  0.00000000E+00  0.00000000E+00
  0.00000000E+00  0.00000000E+00  0.00000000E+00
  0.00000000E+00  0.00000000E+00  0.00000000E+00
  0.00000000E+00  0.00000000E+00  0.00000000E+00
  0.00000000E+00  0.00000000E+00  0.00000000E+00
  0.00000000E+00  0.00000000E+00  0.00000000E+00
  0.00000000E+00  0.00000000E+00  0.00000000E+00
  0.00000000E+00  0.00000000E+00  0.00000000E+00
  0.00000000E+00  0.00000000E+00  0.00000000E+00
  0.00000000E+00  0.00000000E+00  0.00000000E+00
  0.00000000E+00  0.00000000E+00  0.00000000E+00
  0.00000000E+00  0.00000000E+00  0.00000000E+00
  0.00000000E+00  0.00000000E+00  0.00000000E+00
  0.00000000E+00  0.00000000E+00  0.00000000E+00
  0.00000000E+00  0.00000000E+00  0.00000000E+00
  0.00000000E+00  0.00000000E+00  0.00000000E+00
  0.00000000E+00  0.00000000E+00  0.00000000E+00
  0.00000000E+00  0.00000000E+00  0.00000000E+00
  0.00000000E+00  0.00000000E+00  0.00000000E+00
  0.00000000E+00  0.00000000E+00  0.00000000E+00
  0.00000000E+00  0.00000000E+00  0.00000000E+00
  0.00000000E+00  0.00000000E+00  0.00000000E+00
  0.00000000E+00  0.00000000E+00  0.00000000E+00
  0.00000000E+00  0.00000000E+00  0.00000000E+00
  0.00000000E+00  0.00000000E+00  0.00000000E+00
  0.00000000E+00  0.00000000E+00  0.00000000E+00
  0.00000000E+00  0.00000000E+00  0.00000000E+00
  0.00000000E+00  0.00000000E+00  0.00000000E+00
  0.00000000E+00  0.00000000E+00  0.00000000E+00
  0.00000000E+00  0.00000000E+00  0.00000000E+00
  0.00000000E+00  0.00000000E+00  0.00000000E+00
  0.00000000E+00  0.00000000E+00  0.00000000E+00
  0.00000000E+00  0.00000000E+00  0.00000000E+00
  0.00000000E+00  0.00000000E+00  0.00000000E+00
  0.00000000E+00  0.00000000E+00  0.00000000E+00
  0.00000000E+00  0.00000000E+00  0.00000000E+00
  0.00000000E+00  0.00000000E+00  0.00000000E+00
  0.00000000E+00  0.00000000E+00  0.00000000E+00
  0.00000000E+00  0.00000000E+00  0.00000000E+00
  0.00000000E+00  0.00000000E+00  0.00000000E+00
  0.00000000E+00  0.00000000E+00  0.00000000E+00
  0.00000000E+00  0.00000000E+00  0.00000000E+00
  0.00000000E+00  0.00000000E+00  0.00000000E+00
  0.00000000E+00  0.00000000E+00  0.00000000E+00
  0.00000000E+00  0.00000000E+00  0.00000000E+00
  0.00000000E+00  0.00000000E+00  0.00000000E+00
