FCC Cu                                  
   1.00000000000000     
     7.7003931998999997    0.0000000000000000    0.0000000000000000
     3.8501965999999999    6.6687361303000001    0.0000000000000000
     0.0000000000000000    0.0000000000000000   25.4789085387999990
   Cu
    54
Selective dynamics
Direct
  0.0000000000000000  0.0000000000000000  0.0000000000000000   F   F   F
  0.0000000000757794  0.3333333332683566  0.0000000000000000   F   F   F
  0.9999999999467164  0.6666666666866590  0.0000000000000000   F   F   F
  0.3333333332943766  0.0000000000000000  0.0000000000000000   F   F   F
  0.3333333333701489  0.3333333332683566  0.0000000000000000   F   F   F
  0.3333333333709518  0.6666666666866590  0.0000000000000000   F   F   F
  0.6666666667186121  0.0000000000000000  0.0000000000000000   F   F   F
  0.6666666666645256  0.3333333332683566  0.0000000000000000   F   F   F
  0.6666666666653285  0.6666666666866590  0.0000000000000000   F   F   F
  0.1111111111666716  0.1111111110894498  0.0822555489301493   F   F   F
  0.1111111112424510  0.4444444443578064  0.0822555489301493   F   F   F
  0.1111111111133880  0.7777777777761088  0.0822555489301493   F   F   F
  0.4444444444610482  0.1111111110894498  0.0822555489301493   F   F   F
  0.4444444445368205  0.4444444443578064  0.0822555489301493   F   F   F
  0.4444444445376234  0.7777777777761088  0.0822555489301493   F   F   F
  0.7777777778852837  0.1111111110894498  0.0822555489301493   F   F   F
  0.7777777778311972  0.4444444443578064  0.0822555489301493   F   F   F
  0.7777777778320001  0.7777777777761088  0.0822555489301493   F   F   F
  0.2222222222034773  0.2222222221788996  0.1627294248803501   T   T   T
  0.2222222222792567  0.5555555554472562  0.1627294248803501   T   T   T
  0.2222222221501937  0.8888888888655657  0.1627294248803501   T   T   T
  0.5555555554978540  0.2222222221788996  0.1627294248803501   T   T   T
  0.5555555555736333  0.5555555554472562  0.1627294248803501   T   T   T
  0.5555555555744363  0.8888888888655657  0.1627294248803501   T   T   T
  0.8888888889220894  0.2222222221788996  0.1627294248803501   T   T   T
  0.8888888888680100  0.5555555554472562  0.1627294248803501   T   T   T
  0.8888888884792152  0.8888888888655657  0.1627294248803501   T   T   T
  0.0000000000000000 -0.0000000000000000  0.2431455108010216   T   T   T
  0.0000000000757794  0.3333333332683566  0.2431455108010216   T   T   T
  0.9999999999467164  0.6666666666866590  0.2431455108010216   T   T   T
  0.3333333332943766 -0.0000000000000000  0.2431455108010216   T   T   T
  0.3333333333701489  0.3333333332683566  0.2431455108010216   T   T   T
  0.3333333333709518  0.6666666666866590  0.2431455108010216   T   T   T
  0.6666666667186121  0.0000000000000000  0.2431455108010216   T   T   T
  0.6666666666645256  0.3333333332683566  0.2431455108010216   T   T   T
  0.6666666666653285  0.6666666666866590  0.2431455108010216   T   T   T
  0.1111111111666716  0.1111111110894498  0.3238358727425036   T   T   T
  0.1111111112424510  0.4444444443578064  0.3238358727425036   T   T   T
  0.1111111111133880  0.7777777777761088  0.3238358727425036   T   T   T
  0.4444444444610482  0.1111111110894498  0.3238358727425036   T   T   T
  0.4444444445368205  0.4444444443578064  0.3238358727425036   T   T   T
  0.4444444445376234  0.7777777777761088  0.3238358727425036   T   T   T
  0.7777777778852837  0.1111111110894498  0.3238358727425036   T   T   T
  0.7777777778311972  0.4444444443578064  0.3238358727425036   T   T   T
  0.7777777778320001  0.7777777777761088  0.3238358727425036   T   T   T
  0.2222222222034773  0.2222222221788996  0.4042175849392657   T   T   T
  0.2222222222792567  0.5555555554472562  0.4042175849392657   T   T   T
  0.2222222221501937  0.8888888888655657  0.4042175849392657   T   T   T
  0.5555555554978540  0.2222222221788996  0.4042175849392657   T   T   T
  0.5555555555736333  0.5555555554472562  0.4042175849392657   T   T   T
  0.5555555555744363  0.8888888888655657  0.4042175849392657   T   T   T
  0.8888888889220894  0.2222222221788996  0.4042175849392657   T   T   T
  0.8888888888680100  0.5555555554472562  0.4042175849392657   T   T   T
  0.8888888884792152  0.8888888888655657  0.4042175849392657   T   T   T
 
  0.00000000E+00  0.00000000E+00  0.00000000E+00
  0.00000000E+00  0.00000000E+00  0.00000000E+00
  0.00000000E+00  0.00000000E+00  0.00000000E+00
  0.00000000E+00  0.00000000E+00  0.00000000E+00
  0.00000000E+00  0.00000000E+00  0.00000000E+00
  0.00000000E+00  0.00000000E+00  0.00000000E+00
  0.00000000E+00  0.00000000E+00  0.00000000E+00
  0.00000000E+00  0.00000000E+00  0.00000000E+00
  0.00000000E+00  0.00000000E+00  0.00000000E+00
  0.00000000E+00  0.00000000E+00  0.00000000E+00
  0.00000000E+00  0.00000000E+00  0.00000000E+00
  0.00000000E+00  0.00000000E+00  0.00000000E+00
  0.00000000E+00  0.00000000E+00  0.00000000E+00
  0.00000000E+00  0.00000000E+00  0.00000000E+00
  0.00000000E+00  0.00000000E+00  0.00000000E+00
  0.00000000E+00  0.00000000E+00  0.00000000E+00
  0.00000000E+00  0.00000000E+00  0.00000000E+00
  0.00000000E+00  0.00000000E+00  0.00000000E+00
  0.00000000E+00  0.00000000E+00  0.00000000E+00
  0.00000000E+00  0.00000000E+00  0.00000000E+00
  0.00000000E+00  0.00000000E+00  0.00000000E+00
  0.00000000E+00  0.00000000E+00  0.00000000E+00
  0.00000000E+00  0.00000000E+00  0.00000000E+00
  0.00000000E+00  0.00000000E+00  0.00000000E+00
  0.00000000E+00  0.00000000E+00  0.00000000E+00
  0.00000000E+00  0.00000000E+00  0.00000000E+00
  0.00000000E+00  0.00000000E+00  0.00000000E+00
  0.00000000E+00  0.00000000E+00  0.00000000E+00
  0.00000000E+00  0.00000000E+00  0.00000000E+00
  0.00000000E+00  0.00000000E+00  0.00000000E+00
  0.00000000E+00  0.00000000E+00  0.00000000E+00
  0.00000000E+00  0.00000000E+00  0.00000000E+00
  0.00000000E+00  0.00000000E+00  0.00000000E+00
  0.00000000E+00  0.00000000E+00  0.00000000E+00
  0.00000000E+00  0.00000000E+00  0.00000000E+00
  0.00000000E+00  0.00000000E+00  0.00000000E+00
  0.00000000E+00  0.00000000E+00  0.00000000E+00
  0.00000000E+00  0.00000000E+00  0.00000000E+00
  0.00000000E+00  0.00000000E+00  0.00000000E+00
  0.00000000E+00  0.00000000E+00  0.00000000E+00
  0.00000000E+00  0.00000000E+00  0.00000000E+00
  0.00000000E+00  0.00000000E+00  0.00000000E+00
  0.00000000E+00  0.00000000E+00  0.00000000E+00
  0.00000000E+00  0.00000000E+00  0.00000000E+00
  0.00000000E+00  0.00000000E+00  0.00000000E+00
  0.00000000E+00  0.00000000E+00  0.00000000E+00
  0.00000000E+00  0.00000000E+00  0.00000000E+00
  0.00000000E+00  0.00000000E+00  0.00000000E+00
  0.00000000E+00  0.00000000E+00  0.00000000E+00
  0.00000000E+00  0.00000000E+00  0.00000000E+00
  0.00000000E+00  0.00000000E+00  0.00000000E+00
  0.00000000E+00  0.00000000E+00  0.00000000E+00
  0.00000000E+00  0.00000000E+00  0.00000000E+00
  0.00000000E+00  0.00000000E+00  0.00000000E+00
