FCC Cu
1.0
3.6300001144         0.0000000000         0.0000000000
0.0000000000         3.6300001144         0.0000000000
0.0000000000         0.0000000000        27.7049999237
Cu H
16 1
Cartesian
0.0     0.0     0.0     F     F     F
1.815000057     1.815000057     0.0     F     F     F
0.0     1.815000057     1.815000026     F     F     F
1.815000057     0.0     1.815000026     F     F     F
0.0     0.0     3.567328952     F     F     F
1.815000057     1.815000057     3.567328952     F     F     F
0.0     1.815000057     5.317472376     T     T     T
1.815000057     0.0     5.317472376     T     T     T
0.0     0.0     7.038884727     T     T     T
1.815000057     1.815000057     7.038884727     T     T     T
0.0     1.815000057     8.795743304     T     T     T
1.815000057     0.0     8.795743304     T     T     T
0.0     0.0     10.564534996     T     T     T
1.815000057     1.815000057     10.564534996     T     T     T
0.0     1.815000057     12.312122747     T     T     T
1.815000057     0.0     12.312122747     T     T     T
3.6300001139999645 5.445000171000024 13.894239743006775    T   T   T
