FCC Cu                                  
   1.00000000000000     
     3.6300001144000000    0.0000000000000000    0.0000000000000000
     0.0000000000000000    2.5667977333000001    0.0000000000000000
     0.0000000000000000    0.0000000000000000   23.9837913512999990
   Cu   H 
     8     2
Direct
  0.0000000000000000  0.0000000000000000 -0.0004714670341126
  0.4999999999449045  0.5000000001363532  0.0468261268778496
  0.0000000000000000  0.0000000000000000  0.1012404665158766
  0.4999999999449045  0.5000000001363532  0.1534572556852292
  0.0000000000000000  0.0000000000000000  0.2061152414330867
  0.4999999999449045  0.5000000001363532  0.2583169671472809
  0.0000000000000000  0.0000000000000000  0.3126522030662189
  0.4999999999449045  0.5000000001363532  0.3597286325278769
  0.9999999998898090  0.5000000000194831  0.4434660998397834
  0.9999999998898090  0.5000000000194831  0.4751024627838688
 
  0.00000000E+00  0.00000000E+00  0.00000000E+00
  0.00000000E+00  0.00000000E+00  0.00000000E+00
  0.00000000E+00  0.00000000E+00  0.00000000E+00
  0.00000000E+00  0.00000000E+00  0.00000000E+00
  0.00000000E+00  0.00000000E+00  0.00000000E+00
  0.00000000E+00  0.00000000E+00  0.00000000E+00
  0.00000000E+00  0.00000000E+00  0.00000000E+00
  0.00000000E+00  0.00000000E+00  0.00000000E+00
  0.00000000E+00  0.00000000E+00  0.00000000E+00
  0.00000000E+00  0.00000000E+00  0.00000000E+00
