FCC Cu
1.0
        2.5667977333         0.0000000000         0.0000000000
        1.2833988667         2.2229120434         0.0000000000
        0.0000000000         0.0000000000         27.57468923
   Cu
    7
Selective dynamics
Cartesian
0	0	0	F	F	F
1.283398867	0.740970681	2.095781538	F	F	F
2.566797733	1.481941362	4.191563076	T	T	T
0	0	6.287344615	T	T	T
1.283398867	0.740970681	8.383126153	T	T	T
2.566797733	1.481941362	10.47890769	T	T	T
0	0	12.57468923	T	T	T


