FCC Cu                                  
   1.00000000000000     
     5.1335954666000001    0.0000000000000000    0.0000000000000000
     2.5667977333000001    4.4458240868000001    0.0000000000000000
     0.0000000000000000    0.0000000000000000   27.5746898651000016
   Cu
    28
Selective dynamics
Direct
  0.0000000000000000  0.0000000000000000  0.0000000000000000   F   F   F
  0.0000000001131610  0.4999999999100311  0.0000000000000000   F   F   F
  0.4999999999415650  0.0000000000000000  0.0000000000000000   F   F   F
  0.5000000000547260  0.4999999999100311  0.0000000000000000   F   F   F
  0.1666666667498404  0.1666666666366794  0.0760038135062615   F   F   F
  0.1666666668630015  0.6666666665467034  0.0760038135062615   F   F   F
  0.6666666666913983  0.1666666666366794  0.0760038135062615   F   F   F
  0.6666666668045664  0.6666666665467034  0.0760038135062615   F   F   F
  0.3333333333048856  0.3333333332733517  0.1490053464267529   T   T   T
  0.3333333334180466  0.8333333331833828  0.1490053464267529   T   T   T
  0.8333333332464434  0.3333333332733517  0.1490053464267529   T   T   T
  0.8333333333596116  0.8333333331833828  0.1490053464267529   T   T   T
 -0.0000000000000000 -0.0000000000000000  0.2226391494858451   T   T   T
  0.0000000001131610  0.4999999999100311  0.2226391494858451   T   T   T
  0.4999999999415650 -0.0000000000000000  0.2226391494858451   T   T   T
  0.5000000000547260  0.4999999999100311  0.2226391494858451   T   T   T
  0.1666666667498404  0.1666666666366794  0.2962584821708465   T   T   T
  0.1666666668630015  0.6666666665467034  0.2962584821708465   T   T   T
  0.6666666666913983  0.1666666666366794  0.2962584821708465   T   T   T
  0.6666666668045664  0.6666666665467034  0.2962584821708465   T   T   T
  0.3333333333048856  0.3333333332733517  0.3693259697524517   T   T   T
  0.3333333334180466  0.8333333331833828  0.3693259697524517   T   T   T
  0.8333333332464434  0.3333333332733517  0.3693259697524517   T   T   T
  0.8333333333596116  0.8333333331833828  0.3693259697524517   T   T   T
  0.0000000000000000 -0.0000000000000000  0.4442820977677611   T   T   T
  0.0000000001131610  0.4999999999100311  0.4442820977677611   T   T   T
  0.4999999999415650 -0.0000000000000000  0.4442820977677611   T   T   T
  0.5000000000547260  0.4999999999100311  0.4442820977677611   T   T   T
 
  0.00000000E+00  0.00000000E+00  0.00000000E+00
  0.00000000E+00  0.00000000E+00  0.00000000E+00
  0.00000000E+00  0.00000000E+00  0.00000000E+00
  0.00000000E+00  0.00000000E+00  0.00000000E+00
  0.00000000E+00  0.00000000E+00  0.00000000E+00
  0.00000000E+00  0.00000000E+00  0.00000000E+00
  0.00000000E+00  0.00000000E+00  0.00000000E+00
  0.00000000E+00  0.00000000E+00  0.00000000E+00
  0.00000000E+00  0.00000000E+00  0.00000000E+00
  0.00000000E+00  0.00000000E+00  0.00000000E+00
  0.00000000E+00  0.00000000E+00  0.00000000E+00
  0.00000000E+00  0.00000000E+00  0.00000000E+00
  0.00000000E+00  0.00000000E+00  0.00000000E+00
  0.00000000E+00  0.00000000E+00  0.00000000E+00
  0.00000000E+00  0.00000000E+00  0.00000000E+00
  0.00000000E+00  0.00000000E+00  0.00000000E+00
  0.00000000E+00  0.00000000E+00  0.00000000E+00
  0.00000000E+00  0.00000000E+00  0.00000000E+00
  0.00000000E+00  0.00000000E+00  0.00000000E+00
  0.00000000E+00  0.00000000E+00  0.00000000E+00
  0.00000000E+00  0.00000000E+00  0.00000000E+00
  0.00000000E+00  0.00000000E+00  0.00000000E+00
  0.00000000E+00  0.00000000E+00  0.00000000E+00
  0.00000000E+00  0.00000000E+00  0.00000000E+00
  0.00000000E+00  0.00000000E+00  0.00000000E+00
  0.00000000E+00  0.00000000E+00  0.00000000E+00
  0.00000000E+00  0.00000000E+00  0.00000000E+00
  0.00000000E+00  0.00000000E+00  0.00000000E+00
