FCC Cu                                  
   1.00000000000000     
     5.1335954666000001    0.0000000000000000    0.0000000000000000
     2.5667977333000001    4.4458240868000001    0.0000000000000000
     0.0000000000000000    0.0000000000000000   27.5746898651000016
   Cu
    28
Selective dynamics
Cartesian
0.0 0.0 0.0
8.713841948938839e-10 2.222912043000014 0.0
3.850196599500028 0.0 0.0
3.850196600371412 2.222912043000014 0.0
1.2833988672904706 0.7409706810000152 2.0957815860000593
1.2833988681618556 2.9638827239999976 2.0957815860000593
5.133595466790443 0.7409706810000152 2.0957815860000593
5.133595467661883 2.9638827239999976 2.0957815860000593
2.5667977330809415 1.4819413619999988 4.108776215959498
2.566797733952326 3.704853405000013 4.108776215959498
6.416994332580914 1.4819413619999988 4.108776215959498
6.416994333452354 3.704853405000013 4.108776215959498
-0.0 -0.0 6.139205498901817
8.713841948938839e-10 2.222912043000014 6.139205498901817
3.850196599500028 -0.0 6.139205498901817
3.850196600371412 2.222912043000014 6.139205498901817
1.2833988672904706 0.7409706810000152 8.16923576576635
1.2833988681618556 2.9638827239999976 8.16923576576635
5.133595466790443 0.7409706810000152 8.16923576576635
5.133595467661883 2.9638827239999976 8.16923576576635
2.5667977330809415 1.4819413619999988 10.18404907505116
2.566797733952326 3.704853405000013 10.18404907505116
6.416994332580914 1.4819413619999988 10.18404907505116
6.416994333452354 3.704853405000013 10.18404907505116
0.0 -0.0 12.25094105856205
8.713841948938839e-10 2.222912043000014 12.25094105856205
3.850196599500028 -0.0 12.25094105856205
3.850196600371412 2.222912043000014 12.25094105856205
