FCC Cu                                  
   1.00000000000000     
     7.2600002289000001    0.0000000000000000    0.0000000000000000
     0.0000000000000000    5.1335954666000001    0.0000000000000000
     0.0000000000000000    0.0000000000000000   23.9837913512999990
   Cu   H 
    32     2
Selective dynamics
Direct
  0.0000000000000000  0.0000000000000000  0.0000000000000000   F   F   F
  0.0000000000000000  0.4999999999415579  0.0000000000000000   F   F   F
  0.4999999999380194  0.0000000000000000  0.0000000000000000   F   F   F
  0.4999999999380194  0.4999999999415579  0.0000000000000000   F   F   F
  0.2499999999690061  0.2500000000681766  0.0535110904777980   F   F   F
  0.2499999999690061  0.7500000000097415  0.0535110904777980   F   F   F
  0.7499999999070255  0.2500000000681766  0.0535110904777980   F   F   F
  0.7499999999070255  0.7500000000097415  0.0535110904777980   F   F   F
  0.0000000000000000  0.0000000000000000  0.1054137052072122   F   F   F
  0.0000000000000000  0.4999999999415579  0.1054137052072122   F   F   F
  0.4999999999380194  0.0000000000000000  0.1054137052072122   F   F   F
  0.4999999999380194  0.4999999999415579  0.1054137052072122   F   F   F
  0.2501243927198369  0.2495590748759904  0.1571766917725738   T   T   T
  0.2500862847671212  0.7495488356607615  0.1571736112479067   T   T   T
  0.7498756071561947  0.2495590748759904  0.1571766917725738   T   T   T
  0.7499137151089109  0.7495488356607615  0.1571736112479067   T   T   T
  0.0000000000000000 -0.0007189512774528  0.2086258105306465   T   T   T
  0.0000000000000000  0.4990773614005096  0.2086016288089935   T   T   T
  0.4999999999380194 -0.0009018680663191  0.2087566547512403   T   T   T
  0.4999999999380194  0.4992079233478923  0.2087469898259926   T   T   T
  0.2498907441899992  0.2490323813669127  0.2594729771797863   T   T   T
  0.2497740794006006  0.7488222005722533  0.2594930749307943   T   T   T
  0.7501092556860325  0.2490323813669127  0.2594729771797863   T   T   T
  0.7502259204754307  0.7488222005722533  0.2594930749307943   T   T   T
  0.0000000000000000 -0.0011886367001527  0.3142716350950161   T   T   T
  0.0000000000000000  0.4986693190062541  0.3140294009756391   T   T   T
  0.4999999999380194 -0.0012008994834244  0.3142384501091910   T   T   T
  0.4999999999380194  0.4987477062248494  0.3143296157436620   T   T   T
  0.2502200099065022  0.2484941071278606  0.3617771554956077   T   T   T
  0.2504443096121030  0.7488375251942077  0.3617741049809056   T   T   T
  0.7497799899695292  0.2484941071278606  0.3617771554956077   T   T   T
  0.7495556902639284  0.7488375251942077  0.3617741049809056   T   T   T
  0.9999999999449045  0.5504190887158460  0.4474493576575502   T   T   T
  0.9999999999449045  0.5775377358556312  0.4785255879352094   T   T   T
 
  0.00000000E+00  0.00000000E+00  0.00000000E+00
  0.00000000E+00  0.00000000E+00  0.00000000E+00
  0.00000000E+00  0.00000000E+00  0.00000000E+00
  0.00000000E+00  0.00000000E+00  0.00000000E+00
  0.00000000E+00  0.00000000E+00  0.00000000E+00
  0.00000000E+00  0.00000000E+00  0.00000000E+00
  0.00000000E+00  0.00000000E+00  0.00000000E+00
  0.00000000E+00  0.00000000E+00  0.00000000E+00
  0.00000000E+00  0.00000000E+00  0.00000000E+00
  0.00000000E+00  0.00000000E+00  0.00000000E+00
  0.00000000E+00  0.00000000E+00  0.00000000E+00
  0.00000000E+00  0.00000000E+00  0.00000000E+00
  0.00000000E+00  0.00000000E+00  0.00000000E+00
  0.00000000E+00  0.00000000E+00  0.00000000E+00
  0.00000000E+00  0.00000000E+00  0.00000000E+00
  0.00000000E+00  0.00000000E+00  0.00000000E+00
  0.00000000E+00  0.00000000E+00  0.00000000E+00
  0.00000000E+00  0.00000000E+00  0.00000000E+00
  0.00000000E+00  0.00000000E+00  0.00000000E+00
  0.00000000E+00  0.00000000E+00  0.00000000E+00
  0.00000000E+00  0.00000000E+00  0.00000000E+00
  0.00000000E+00  0.00000000E+00  0.00000000E+00
  0.00000000E+00  0.00000000E+00  0.00000000E+00
  0.00000000E+00  0.00000000E+00  0.00000000E+00
  0.00000000E+00  0.00000000E+00  0.00000000E+00
  0.00000000E+00  0.00000000E+00  0.00000000E+00
  0.00000000E+00  0.00000000E+00  0.00000000E+00
  0.00000000E+00  0.00000000E+00  0.00000000E+00
  0.00000000E+00  0.00000000E+00  0.00000000E+00
  0.00000000E+00  0.00000000E+00  0.00000000E+00
  0.00000000E+00  0.00000000E+00  0.00000000E+00
  0.00000000E+00  0.00000000E+00  0.00000000E+00
  0.00000000E+00  0.00000000E+00  0.00000000E+00
  0.00000000E+00  0.00000000E+00  0.00000000E+00
