FCC Cu                                  
   1.00000000000000     
     7.2600002289000001    0.0000000000000000    0.0000000000000000
     0.0000000000000000    5.1335954666000001    0.0000000000000000
     0.0000000000000000    0.0000000000000000   23.9837913512999990
   Cu   H 
    32     2
Selective dynamics
Direct
  0.0000000000000000  0.0000000000000000  0.0000000000000000   F   F   F
  0.0000000000000000  0.4999999999415579  0.0000000000000000   F   F   F
  0.4999999999380194  0.0000000000000000  0.0000000000000000   F   F   F
  0.4999999999380194  0.4999999999415579  0.0000000000000000   F   F   F
  0.2499999999690061  0.2500000000681766  0.0535110904777980   F   F   F
  0.2499999999690061  0.7500000000097415  0.0535110904777980   F   F   F
  0.7499999999070255  0.2500000000681766  0.0535110904777980   F   F   F
  0.7499999999070255  0.7500000000097415  0.0535110904777980   F   F   F
  0.0000000000000000  0.0000000000000000  0.1054137052072122   F   F   F
  0.0000000000000000  0.4999999999415579  0.1054137052072122   F   F   F
  0.4999999999380194  0.0000000000000000  0.1054137052072122   F   F   F
  0.4999999999380194  0.4999999999415579  0.1054137052072122   F   F   F
  0.2499999999690061  0.2512635021444826  0.1571194848498977   T   T   T
  0.2499999999690061  0.7510906464208245  0.1571052547479718   T   T   T
  0.7499999999070255  0.2512682552780707  0.1574903718075746   T   T   T
  0.7499999999070255  0.7512663916578756  0.1580088641759242   T   T   T
 -0.0002155127522937  0.0021412084291804  0.2087629299307058   T   T   T
 -0.0002245026970605  0.5025379598277988  0.2087958415938886   T   T   T
  0.5002155126903129  0.0021412084291804  0.2087629299307058   T   T   T
  0.5002245026350799  0.5025379598277988  0.2087958415938886   T   T   T
  0.2499999999690061  0.2531828332444157  0.2593998652733136   T   T   T
  0.2499999999690061  0.7528600993149043  0.2595242717806713   T   T   T
  0.7499999999070255  0.2526093935337333  0.2595925864979876   T   T   T
  0.7499999999070255  0.7531391433147214  0.2615905592330994   T   T   T
  0.0012696667777429  0.0041765422299488  0.3140417287929650   T   T   T
  0.0009900636800939  0.5040179195464695  0.3142252282929888   T   T   T
  0.4987303331602764  0.0041765422299488  0.3140417287929650   T   T   T
  0.4990099362579254  0.5040179195464695  0.3142252282929888   T   T   T
  0.2499999999690061  0.2549117856565227  0.3621074919270791   T   T   T
  0.2499999999690061  0.7545297058318968  0.3619853976350237   T   T   T
  0.7499999999070255  0.2558555518080688  0.3608981120098231   T   T   T
  0.7499999999070255  0.7555118580937187  0.3639938845894664   T   T   T
  0.7499999999070255  0.6919737922172696  0.4361813096829387   T   T   T
  0.7499999999070255  0.8494295249763169  0.4342736354919276   T   T   T
 
  0.00000000E+00  0.00000000E+00  0.00000000E+00
  0.00000000E+00  0.00000000E+00  0.00000000E+00
  0.00000000E+00  0.00000000E+00  0.00000000E+00
  0.00000000E+00  0.00000000E+00  0.00000000E+00
  0.00000000E+00  0.00000000E+00  0.00000000E+00
  0.00000000E+00  0.00000000E+00  0.00000000E+00
  0.00000000E+00  0.00000000E+00  0.00000000E+00
  0.00000000E+00  0.00000000E+00  0.00000000E+00
  0.00000000E+00  0.00000000E+00  0.00000000E+00
  0.00000000E+00  0.00000000E+00  0.00000000E+00
  0.00000000E+00  0.00000000E+00  0.00000000E+00
  0.00000000E+00  0.00000000E+00  0.00000000E+00
  0.00000000E+00  0.00000000E+00  0.00000000E+00
  0.00000000E+00  0.00000000E+00  0.00000000E+00
  0.00000000E+00  0.00000000E+00  0.00000000E+00
  0.00000000E+00  0.00000000E+00  0.00000000E+00
  0.00000000E+00  0.00000000E+00  0.00000000E+00
  0.00000000E+00  0.00000000E+00  0.00000000E+00
  0.00000000E+00  0.00000000E+00  0.00000000E+00
  0.00000000E+00  0.00000000E+00  0.00000000E+00
  0.00000000E+00  0.00000000E+00  0.00000000E+00
  0.00000000E+00  0.00000000E+00  0.00000000E+00
  0.00000000E+00  0.00000000E+00  0.00000000E+00
  0.00000000E+00  0.00000000E+00  0.00000000E+00
  0.00000000E+00  0.00000000E+00  0.00000000E+00
  0.00000000E+00  0.00000000E+00  0.00000000E+00
  0.00000000E+00  0.00000000E+00  0.00000000E+00
  0.00000000E+00  0.00000000E+00  0.00000000E+00
  0.00000000E+00  0.00000000E+00  0.00000000E+00
  0.00000000E+00  0.00000000E+00  0.00000000E+00
  0.00000000E+00  0.00000000E+00  0.00000000E+00
  0.00000000E+00  0.00000000E+00  0.00000000E+00
  0.00000000E+00  0.00000000E+00  0.00000000E+00
  0.00000000E+00  0.00000000E+00  0.00000000E+00
