FCC Cu                                  
   1.00000000000000     
    10.8900003433000006    0.0000000000000000    0.0000000000000000
     0.0000000000000000    7.7003931998999997    0.0000000000000000
     0.0000000000000000    0.0000000000000000   23.9837913512999990
   Cu
    72
Selective dynamics
Cartesian
0.0 0.0 0.0
0.0 2.566797733000018 0.0
0.0 5.133595467 0.0
3.6300001139999645 0.0 0.0
3.6300001139999645 2.566797733000018 0.0
3.6300001139999645 5.133595467 0.0
7.260000228999964 0.0 0.0
7.260000228999964 2.566797733000018 0.0
7.260000228999964 5.133595467 0.0
1.8150000569999822 1.2833988669999907 1.2833988290000433
1.8150000569999822 3.850196600000009 1.2833988290000433
1.8150000569999822 6.416994333999991 1.2833988290000433
5.445000171000024 1.2833988669999907 1.2833988290000433
5.445000171000024 3.850196600000009 1.2833988290000433
5.445000171000024 6.416994333999991 1.2833988290000433
9.075000286000023 1.2833988669999907 1.2833988290000433
9.075000286000023 3.850196600000009 1.2833988290000433
9.075000286000023 6.416994333999991 1.2833988290000433
0.0 0.0 2.536664090259509
0.0 2.566797733000018 2.536664090259509
0.0 5.133595467 2.536664090259509
3.6300001139999645 0.0 2.536664090259509
3.6300001139999645 2.566797733000018 2.536664090259509
3.6300001139999645 5.133595467 2.536664090259509
7.260000228999964 0.0 2.536664090259509
7.260000228999964 2.566797733000018 2.536664090259509
7.260000228999964 5.133595467 2.536664090259509
1.8150000569999822 1.2833988669999907 3.7924858747797416
1.8150000569999822 3.850196600000009 3.7924858747797416
1.8150000569999822 6.416994333999991 3.7924858747797416
5.445000171000024 1.2833988669999907 3.7924858747797416
5.445000171000024 3.850196600000009 3.7924858747797416
5.445000171000024 6.416994333999991 3.7924858747797416
9.075000286000023 1.2833988669999907 3.7924858747797416
9.075000286000023 3.850196600000009 3.7924858747797416
9.075000286000023 6.416994333999991 3.7924858747797416
-0.0 0.0 5.061877257772839
-0.0 2.566797733000018 5.061877257772839
0.0 5.133595467 5.061877257772839
3.6300001139999645 0.0 5.061877257772839
3.6300001139999645 2.566797733000018 5.061877257772839
3.6300001139999645 5.133595467 5.061877257772839
7.260000228999964 0.0 5.061877257772839
7.260000228999964 2.566797733000018 5.061877257772839
7.260000228999964 5.133595467 5.061877257772839
1.8150000569999822 1.2833988669999907 6.29530131641182
1.8150000569999822 3.850196600000009 6.29530131641182
1.8150000569999822 6.416994333999991 6.29530131641182
5.445000171000024 1.2833988669999907 6.29530131641182
5.445000171000024 3.850196600000009 6.29530131641182
5.445000171000024 6.416994333999991 6.29530131641182
9.075000286000023 1.2833988669999907 6.29530131641182
9.075000286000023 3.850196600000009 6.29530131641182
9.075000286000023 6.416994333999991 6.29530131641182
0.0 0.0 7.613849197640318
-0.0 2.566797733000018 7.613849197640318
0.0 5.133595467 7.613849197640318
3.6300001139999645 0.0 7.613849197640318
3.6300001139999645 2.566797733000018 7.613849197640318
3.6300001139999645 5.133595467 7.613849197640318
7.260000228999964 -0.0 7.613849197640318
7.260000228999964 2.566797733000018 7.613849197640318
7.260000228999964 5.133595467 7.613849197640318
1.8150000569999822 1.2833988669999907 8.760459759792694
1.8150000569999822 3.850196600000009 8.760459759792694
1.8150000569999822 6.416994333999991 8.760459759792694
5.445000171000024 1.2833988669999907 8.760459759792694
5.445000171000024 3.850196600000009 8.760459759792694
5.445000171000024 6.416994333999991 8.760459759792694
9.075000286000023 1.2833988669999907 8.760459759792694
9.075000286000023 3.850196600000009 8.760459759792694
9.075000286000023 6.416994333999991 8.760459759792694
