FCC Cu
1.0
       10.8900003433         0.0000000000         0.0000000000
        0.0000000000         7.7003931999         0.0000000000
        0.0000000000         0.0000000000        23.9837913513
   Cu
   72
Selective dynamics
Cartesian
 0	0	0	F	F	F
0	2.566797733	0	F	F	F
0	5.133595467	0	F	F	F
3.630000114	0	0	F	F	F
3.630000114	2.566797733	0	F	F	F
3.630000114	5.133595467	0	F	F	F
7.260000229	0	0	F	F	F
7.260000229	2.566797733	0	F	F	F
7.260000229	5.133595467	0	F	F	F
1.815000057	1.283398867	1.283398829	F	F	F
1.815000057	3.8501966	1.283398829	F	F	F
1.815000057	6.416994334	1.283398829	F	F	F
5.445000171	1.283398867	1.283398829	F	F	F
5.445000171	3.8501966	1.283398829	F	F	F
5.445000171	6.416994334	1.283398829	F	F	F
9.075000286	1.283398867	1.283398829	F	F	F
9.075000286	3.8501966	1.283398829	F	F	F
9.075000286	6.416994334	1.283398829	F	F	F
0	0	2.566797656	T	T	T
0	2.566797733	2.566797656	T	T	T
0	5.133595467	2.566797656	T	T	T
3.630000114	0	2.566797656	T	T	T
3.630000114	2.566797733	2.566797656	T	T	T
3.630000114	5.133595467	2.566797656	T	T	T
7.260000229	0	2.566797656	T	T	T
7.260000229	2.566797733	2.566797656	T	T	T
7.260000229	5.133595467	2.566797656	T	T	T
1.815000057	1.283398867	3.850196485	T	T	T
1.815000057	3.8501966	3.850196485	T	T	T
1.815000057	6.416994334	3.850196485	T	T	T
5.445000171	1.283398867	3.850196485	T	T	T
5.445000171	3.8501966	3.850196485	T	T	T
5.445000171	6.416994334	3.850196485	T	T	T
9.075000286	1.283398867	3.850196485	T	T	T
9.075000286	3.8501966	3.850196485	T	T	T
9.075000286	6.416994334	3.850196485	T	T	T
0	0	5.133595313	T	T	T
0	2.566797733	5.133595313	T	T	T
0	5.133595467	5.133595313	T	T	T
3.630000114	0	5.133595313	T	T	T
3.630000114	2.566797733	5.133595313	T	T	T
3.630000114	5.133595467	5.133595313	T	T	T
7.260000229	0	5.133595313	T	T	T
7.260000229	2.566797733	5.133595313	T	T	T
7.260000229	5.133595467	5.133595313	T	T	T
1.815000057	1.283398867	6.416994141	T	T	T
1.815000057	3.8501966	6.416994141	T	T	T
1.815000057	6.416994334	6.416994141	T	T	T
5.445000171	1.283398867	6.416994141	T	T	T
5.445000171	3.8501966	6.416994141	T	T	T
5.445000171	6.416994334	6.416994141	T	T	T
9.075000286	1.283398867	6.416994141	T	T	T
9.075000286	3.8501966	6.416994141	T	T	T
9.075000286	6.416994334	6.416994141	T	T	T
0	0	7.700392969	T	T	T
0	2.566797733	7.700392969	T	T	T
0	5.133595467	7.700392969	T	T	T
3.630000114	0	7.700392969	T	T	T
3.630000114	2.566797733	7.700392969	T	T	T
3.630000114	5.133595467	7.700392969	T	T	T
7.260000229	0	7.700392969	T	T	T
7.260000229	2.566797733	7.700392969	T	T	T
7.260000229	5.133595467	7.700392969	T	T	T
1.815000057	1.283398867	8.983791798	T	T	T
1.815000057	3.8501966	8.983791798	T	T	T
1.815000057	6.416994334	8.983791798	T	T	T
5.445000171	1.283398867	8.983791798	T	T	T
5.445000171	3.8501966	8.983791798	T	T	T
5.445000171	6.416994334	8.983791798	T	T	T
9.075000286	1.283398867	8.983791798	T	T	T
9.075000286	3.8501966	8.983791798	T	T	T
9.075000286	6.416994334	8.983791798	T	T	T

