FCC Cu                                  
   1.00000000000000     
    10.8900003433000006    0.0000000000000000    0.0000000000000000
     0.0000000000000000   10.8900003433000006    0.0000000000000000
     0.0000000000000000    0.0000000000000000   27.7049999237000009
   Cu   O 
   144     1
Selective dynamics
Direct
  0.0000000000000000  0.0000000000000000  0.0000000000000000   F   F   F
  0.0000000000000000  0.3333333332935382  0.0000000000000000   F   F   F
  0.0000000000000000  0.6666666666789069  0.0000000000000000   F   F   F
  0.3333333332935382  0.0000000000000000  0.0000000000000000   F   F   F
  0.3333333332935382  0.3333333332935382  0.0000000000000000   F   F   F
  0.3333333332935382  0.6666666666789069  0.0000000000000000   F   F   F
  0.6666666666789069  0.0000000000000000  0.0000000000000000   F   F   F
  0.6666666666789069  0.3333333332935382  0.0000000000000000   F   F   F
  0.6666666666789069  0.6666666666789069  0.0000000000000000   F   F   F
  0.1666666666467691  0.1666666666467691  0.0000000000000000   F   F   F
  0.1666666666467691  0.4999999999403144  0.0000000000000000   F   F   F
  0.1666666666467691  0.8333333333256832  0.0000000000000000   F   F   F
  0.4999999999403144  0.1666666666467691  0.0000000000000000   F   F   F
  0.4999999999403144  0.4999999999403144  0.0000000000000000   F   F   F
  0.4999999999403144  0.8333333333256832  0.0000000000000000   F   F   F
  0.8333333333256832  0.1666666666467691  0.0000000000000000   F   F   F
  0.8333333333256832  0.4999999999403144  0.0000000000000000   F   F   F
  0.8333333333256832  0.8333333333256832  0.0000000000000000   F   F   F
  0.0000000000000000  0.1666666666467691  0.0655116416169861   F   F   F
  0.0000000000000000  0.4999999999403144  0.0655116416169861   F   F   F
  0.0000000000000000  0.8333333333256832  0.0655116416169861   F   F   F
  0.3333333332935382  0.1666666666467691  0.0655116416169861   F   F   F
  0.3333333332935382  0.4999999999403144  0.0655116416169861   F   F   F
  0.3333333332935382  0.8333333333256832  0.0655116416169861   F   F   F
  0.6666666666789069  0.1666666666467691  0.0655116416169861   F   F   F
  0.6666666666789069  0.4999999999403144  0.0655116416169861   F   F   F
  0.6666666666789069  0.8333333333256832  0.0655116416169861   F   F   F
  0.1666666666467691  0.0000000000000000  0.0655116416169861   F   F   F
  0.1666666666467691  0.3333333332935382  0.0655116416169861   F   F   F
  0.1666666666467691  0.6666666666789069  0.0655116416169861   F   F   F
  0.4999999999403144  0.0000000000000000  0.0655116416169861   F   F   F
  0.4999999999403144  0.3333333332935382  0.0655116416169861   F   F   F
  0.4999999999403144  0.6666666666789069  0.0655116416169861   F   F   F
  0.8333333333256832  0.0000000000000000  0.0655116416169861   F   F   F
  0.8333333333256832  0.3333333332935382  0.0655116416169861   F   F   F
  0.8333333333256832  0.6666666666789069  0.0655116416169861   F   F   F
  0.0000000000000000  0.0000000000000000  0.1311955341119244   F   F   F
  0.0000000000000000  0.3333333332935382  0.1311955341119244   F   F   F
  0.0000000000000000  0.6666666666789069  0.1311955341119244   F   F   F
  0.3333333332935382  0.0000000000000000  0.1311955341119244   F   F   F
  0.3333333332935382  0.3333333332935382  0.1311955341119244   F   F   F
  0.3333333332935382  0.6666666666789069  0.1311955341119244   F   F   F
  0.6666666666789069  0.0000000000000000  0.1311955341119244   F   F   F
  0.6666666666789069  0.3333333332935382  0.1311955341119244   F   F   F
  0.6666666666789069  0.6666666666789069  0.1311955341119244   F   F   F
  0.1666666666467691  0.1666666666467691  0.1311955341119244   F   F   F
  0.1666666666467691  0.4999999999403144  0.1311955341119244   F   F   F
  0.1666666666467691  0.8333333333256832  0.1311955341119244   F   F   F
  0.4999999999403144  0.1666666666467691  0.1311955341119244   F   F   F
  0.4999999999403144  0.4999999999403144  0.1311955341119244   F   F   F
  0.4999999999403144  0.8333333333256832  0.1311955341119244   F   F   F
  0.8333333333256832  0.1666666666467691  0.1311955341119244   F   F   F
  0.8333333333256832  0.4999999999403144  0.1311955341119244   F   F   F
  0.8333333333256832  0.8333333333256832  0.1311955341119244   F   F   F
  0.0000788824452163  0.1667455490919854  0.1944818975826159   T   T   T
  0.0000802573159629  0.4998866835093617  0.1944817562279944   T   T   T
  0.0000224950489207  0.8332634129382858  0.1944962284350679   T   T   T
  0.3332200168625855  0.1667469239627320  0.1944817562279944   T   T   T
  0.3332669845099663  0.4999336511567425  0.1946274915824311   T   T   T
  0.3333380427987292  0.8333083463899387  0.1945783010215667   T   T   T
  0.6665967462915096  0.1666891616956898  0.1944962284350679   T   T   T
  0.6666416797431625  0.5000047094455053  0.1945783010215667   T   T   T
  0.6666360751058993  0.8333027417526755  0.1944241591826397   T   T   T
  0.1666619571415782  0.0000249869357444  0.1945783010215667   T   T   T
  0.1667330154303409  0.3333996820771101  0.1946274915824311   T   T   T
  0.1667799830777217  0.6665864093629439  0.1944817562279944   T   T   T
  0.4999775048913937  0.0000699203873974  0.1944962284350679   T   T   T
  0.4999197426243515  0.3334466497244909  0.1944817562279944   T   T   T
  0.4999211174950982  0.6665877842336906  0.1944818975826159   T   T   T
  0.8333639248986908  0.0000305915730076  0.1944241591826397   T   T   T
  0.8333583202614276  0.3333286237883472  0.1945783010215667   T   T   T
  0.8334032537130805  0.6666441716299862  0.1944962284350679   T   T   T
  0.0000641587524113 -0.0001006178719737  0.2576841408589713   T   T   T
 -0.0001848835709928  0.3333287803337440  0.2578478875067428   T   T   T
  0.0001444254499334  0.6665222412289734  0.2577974345662951   T   T   T
  0.3332842021814429  0.0000461208831922  0.2577911925223006   T   T   T
  0.3335125422412692  0.3331541243458072  0.2577910532800445   T   T   T
  0.3333378862533324  0.6668515502498998  0.2578478875067428   T   T   T
  0.6666863160240588 -0.0000196493451518  0.2576767325853918   T   T   T
  0.6666205457957146  0.3333824644056335  0.2577911925223006   T   T   T
  0.6667672845508806  0.6666025079264956  0.2576841408589713   T   T   T
  0.1666621136869749  0.1664817830757762  0.2578478875067428   T   T   T
  0.1664874576990379  0.5001792088880456  0.2577910532800445   T   T   T
  0.1667157977588644  0.8332872124424908  0.2577911925223006   T   T   T
  0.4998555744903811  0.1668110920967024  0.2577974345662951   T   T   T
  0.5001848835113073  0.5000045529001086  0.2578478875067428   T   T   T
  0.4999358411879030  0.8334339511976568  0.2576841408589713   T   T   T
  0.8332327154537095  0.1667308253991804  0.2576841408589713   T   T   T
  0.8333794542088755  0.4999508688282191  0.2577911925223006   T   T   T
  0.8333136839805313  0.8333529826708350  0.2576767325853918   T   T   T
 -0.0002332087337936  0.1664334579129755  0.3208909174657648   T   T   T
  0.0001739488714167  0.4998954188783537  0.3211776046392079   T   T   T
 -0.0001868012169381  0.8332721274335226  0.3209671289774331   T   T   T
  0.3332287522315776  0.1668406155181858  0.3211776046392079   T   T   T
  0.3333743895916834  0.5000410562384596  0.3210879912077439   T   T   T
  0.3335568653134012  0.8333574752956139  0.3210560335900338   T   T   T
  0.6666054607867464  0.1664798654298310  0.3209671289774331   T   T   T
  0.6666908086488377  0.5002235319601774  0.3210560335900338   T   T   T
  0.6666337293109805  0.8333003959577567  0.3209498180850094   T   T   T
  0.1664431346269061 -0.0000241419699308  0.3210560335900338   T   T   T
  0.1666256103486238  0.3332922769953930  0.3210879912077439   T   T   T
  0.1667712477087298  0.6664927178074903  0.3211776046392079   T   T   T
  0.5001868011572524  0.0000612058921604  0.3209671289774331   T   T   T
  0.4998260510688977  0.3334379143554988  0.3211776046392079   T   T   T
  0.5002332086741079  0.6668998754127005  0.3208909174657648   T   T   T
  0.8333662706936096  0.0000329373679263  0.3209498180850094   T   T   T
  0.8333091913557524  0.3331098012736752  0.3210560335900338   T   T   T
  0.8333945392178437  0.6668534678958450  0.3209671289774331   T   T   T
 -0.0001055818778799 -0.0006105543076833  0.3846953336252180   T   T   T
  0.0013020083384878  0.3330385132139216  0.3852034868623336   T   T   T
  0.0003352989374093  0.6663313677414977  0.3849402252667841   T   T   T
  0.3330724201964865  0.0001756831883064  0.3849077218908009   T   T   T
  0.3324660998699694  0.3342005667171070  0.3851032089347966   T   T   T
  0.3336281533731548  0.6653646583404190  0.3852034868623336   T   T   T
  0.6667715376330037 -0.0001048709540966  0.3848054456572319   T   T   T
  0.6664909834906005  0.3335942463905899  0.3849077218908009   T   T   T
  0.6672772209865903  0.6667722485567866  0.3846953336252180   T   T   T
  0.1663718465671525  0.1679686749852569  0.3852034868623336   T   T   T
  0.1675339000703380  0.4991327665167455  0.3851032089347966   T   T   T
  0.1669275797438209  0.8331576501373767  0.3849077218908009   T   T   T
  0.4996647010029051  0.1670019655841784  0.3849402252667841   T   T   T
  0.4986979916018266  0.5002948200199311  0.3852034868623336   T   T   T
  0.5001055818181943  0.8339438876333665  0.3846953336252180   T   T   T
  0.8327227790179998  0.1665610847688891  0.3846953336252180   T   T   T
  0.8335090165139896  0.4997390868432627  0.3849077218908009   T   T   T
  0.8332284623715864  0.8334382042797799  0.3848054456572319   T   T   T
 -0.0018211404690018  0.1648455261777673  0.4469366247853604   T   T   T
 -0.0024340437200434  0.5011962009750736  0.4474476149905009   T   T   T
 -0.0006293005454090  0.8334726511870991  0.4474936804183285   T   T   T
  0.3345295343282974  0.1642326229267257  0.4474476149905009   T   T   T
  0.3391104132292623  0.5057770798760387  0.4516139980556108   T   T   T
  0.3338577699160646  0.8336465085982283  0.4473357612002188   T   T   T
  0.6668059845403229  0.1660373661013601  0.4474936804183285   T   T   T
  0.6669798419514521  0.5005244365628407  0.4473357612002188   T   T   T
  0.6668828618419893  0.8335495284887655  0.4474893895774289   T   T   T
  0.1661422300242428 -0.0003131752725450  0.4473357612002188   T   T   T
  0.1608895867110449  0.3275562533578141  0.4516139980556108   T   T   T
  0.1654704656120100  0.6691007103989504  0.4474476149905009   T   T   T
  0.5006293004857234 -0.0001393178614157  0.4474936804183285   T   T   T
  0.5024340436603578  0.3321371322587790  0.4474476149905009   T   T   T
  0.5018211404093164  0.6684878071479089  0.4469366247853604   T   T   T
  0.8331171381626008 -0.0002161951630825  0.4474893895774289   T   T   T
  0.8330201580531380  0.3328088966710118  0.4473357612002188   T   T   T
  0.8331940154642672  0.6672959672243159  0.4474936804183285   T   T   T
  0.2499999999701572  0.4166666666169263  0.4949093396845772   T   T   T
 
  0.00000000E+00  0.00000000E+00  0.00000000E+00
  0.00000000E+00  0.00000000E+00  0.00000000E+00
  0.00000000E+00  0.00000000E+00  0.00000000E+00
  0.00000000E+00  0.00000000E+00  0.00000000E+00
  0.00000000E+00  0.00000000E+00  0.00000000E+00
  0.00000000E+00  0.00000000E+00  0.00000000E+00
  0.00000000E+00  0.00000000E+00  0.00000000E+00
  0.00000000E+00  0.00000000E+00  0.00000000E+00
  0.00000000E+00  0.00000000E+00  0.00000000E+00
  0.00000000E+00  0.00000000E+00  0.00000000E+00
  0.00000000E+00  0.00000000E+00  0.00000000E+00
  0.00000000E+00  0.00000000E+00  0.00000000E+00
  0.00000000E+00  0.00000000E+00  0.00000000E+00
  0.00000000E+00  0.00000000E+00  0.00000000E+00
  0.00000000E+00  0.00000000E+00  0.00000000E+00
  0.00000000E+00  0.00000000E+00  0.00000000E+00
  0.00000000E+00  0.00000000E+00  0.00000000E+00
  0.00000000E+00  0.00000000E+00  0.00000000E+00
  0.00000000E+00  0.00000000E+00  0.00000000E+00
  0.00000000E+00  0.00000000E+00  0.00000000E+00
  0.00000000E+00  0.00000000E+00  0.00000000E+00
  0.00000000E+00  0.00000000E+00  0.00000000E+00
  0.00000000E+00  0.00000000E+00  0.00000000E+00
  0.00000000E+00  0.00000000E+00  0.00000000E+00
  0.00000000E+00  0.00000000E+00  0.00000000E+00
  0.00000000E+00  0.00000000E+00  0.00000000E+00
  0.00000000E+00  0.00000000E+00  0.00000000E+00
  0.00000000E+00  0.00000000E+00  0.00000000E+00
  0.00000000E+00  0.00000000E+00  0.00000000E+00
  0.00000000E+00  0.00000000E+00  0.00000000E+00
  0.00000000E+00  0.00000000E+00  0.00000000E+00
  0.00000000E+00  0.00000000E+00  0.00000000E+00
  0.00000000E+00  0.00000000E+00  0.00000000E+00
  0.00000000E+00  0.00000000E+00  0.00000000E+00
  0.00000000E+00  0.00000000E+00  0.00000000E+00
  0.00000000E+00  0.00000000E+00  0.00000000E+00
  0.00000000E+00  0.00000000E+00  0.00000000E+00
  0.00000000E+00  0.00000000E+00  0.00000000E+00
  0.00000000E+00  0.00000000E+00  0.00000000E+00
  0.00000000E+00  0.00000000E+00  0.00000000E+00
  0.00000000E+00  0.00000000E+00  0.00000000E+00
  0.00000000E+00  0.00000000E+00  0.00000000E+00
  0.00000000E+00  0.00000000E+00  0.00000000E+00
  0.00000000E+00  0.00000000E+00  0.00000000E+00
  0.00000000E+00  0.00000000E+00  0.00000000E+00
  0.00000000E+00  0.00000000E+00  0.00000000E+00
  0.00000000E+00  0.00000000E+00  0.00000000E+00
  0.00000000E+00  0.00000000E+00  0.00000000E+00
  0.00000000E+00  0.00000000E+00  0.00000000E+00
  0.00000000E+00  0.00000000E+00  0.00000000E+00
  0.00000000E+00  0.00000000E+00  0.00000000E+00
  0.00000000E+00  0.00000000E+00  0.00000000E+00
  0.00000000E+00  0.00000000E+00  0.00000000E+00
  0.00000000E+00  0.00000000E+00  0.00000000E+00
  0.00000000E+00  0.00000000E+00  0.00000000E+00
  0.00000000E+00  0.00000000E+00  0.00000000E+00
  0.00000000E+00  0.00000000E+00  0.00000000E+00
  0.00000000E+00  0.00000000E+00  0.00000000E+00
  0.00000000E+00  0.00000000E+00  0.00000000E+00
  0.00000000E+00  0.00000000E+00  0.00000000E+00
  0.00000000E+00  0.00000000E+00  0.00000000E+00
  0.00000000E+00  0.00000000E+00  0.00000000E+00
  0.00000000E+00  0.00000000E+00  0.00000000E+00
  0.00000000E+00  0.00000000E+00  0.00000000E+00
  0.00000000E+00  0.00000000E+00  0.00000000E+00
  0.00000000E+00  0.00000000E+00  0.00000000E+00
  0.00000000E+00  0.00000000E+00  0.00000000E+00
  0.00000000E+00  0.00000000E+00  0.00000000E+00
  0.00000000E+00  0.00000000E+00  0.00000000E+00
  0.00000000E+00  0.00000000E+00  0.00000000E+00
  0.00000000E+00  0.00000000E+00  0.00000000E+00
  0.00000000E+00  0.00000000E+00  0.00000000E+00
  0.00000000E+00  0.00000000E+00  0.00000000E+00
  0.00000000E+00  0.00000000E+00  0.00000000E+00
  0.00000000E+00  0.00000000E+00  0.00000000E+00
  0.00000000E+00  0.00000000E+00  0.00000000E+00
  0.00000000E+00  0.00000000E+00  0.00000000E+00
  0.00000000E+00  0.00000000E+00  0.00000000E+00
  0.00000000E+00  0.00000000E+00  0.00000000E+00
  0.00000000E+00  0.00000000E+00  0.00000000E+00
  0.00000000E+00  0.00000000E+00  0.00000000E+00
  0.00000000E+00  0.00000000E+00  0.00000000E+00
  0.00000000E+00  0.00000000E+00  0.00000000E+00
  0.00000000E+00  0.00000000E+00  0.00000000E+00
  0.00000000E+00  0.00000000E+00  0.00000000E+00
  0.00000000E+00  0.00000000E+00  0.00000000E+00
  0.00000000E+00  0.00000000E+00  0.00000000E+00
  0.00000000E+00  0.00000000E+00  0.00000000E+00
  0.00000000E+00  0.00000000E+00  0.00000000E+00
  0.00000000E+00  0.00000000E+00  0.00000000E+00
  0.00000000E+00  0.00000000E+00  0.00000000E+00
  0.00000000E+00  0.00000000E+00  0.00000000E+00
  0.00000000E+00  0.00000000E+00  0.00000000E+00
  0.00000000E+00  0.00000000E+00  0.00000000E+00
  0.00000000E+00  0.00000000E+00  0.00000000E+00
  0.00000000E+00  0.00000000E+00  0.00000000E+00
  0.00000000E+00  0.00000000E+00  0.00000000E+00
  0.00000000E+00  0.00000000E+00  0.00000000E+00
  0.00000000E+00  0.00000000E+00  0.00000000E+00
  0.00000000E+00  0.00000000E+00  0.00000000E+00
  0.00000000E+00  0.00000000E+00  0.00000000E+00
  0.00000000E+00  0.00000000E+00  0.00000000E+00
  0.00000000E+00  0.00000000E+00  0.00000000E+00
  0.00000000E+00  0.00000000E+00  0.00000000E+00
  0.00000000E+00  0.00000000E+00  0.00000000E+00
  0.00000000E+00  0.00000000E+00  0.00000000E+00
  0.00000000E+00  0.00000000E+00  0.00000000E+00
  0.00000000E+00  0.00000000E+00  0.00000000E+00
  0.00000000E+00  0.00000000E+00  0.00000000E+00
  0.00000000E+00  0.00000000E+00  0.00000000E+00
  0.00000000E+00  0.00000000E+00  0.00000000E+00
  0.00000000E+00  0.00000000E+00  0.00000000E+00
  0.00000000E+00  0.00000000E+00  0.00000000E+00
  0.00000000E+00  0.00000000E+00  0.00000000E+00
  0.00000000E+00  0.00000000E+00  0.00000000E+00
  0.00000000E+00  0.00000000E+00  0.00000000E+00
  0.00000000E+00  0.00000000E+00  0.00000000E+00
  0.00000000E+00  0.00000000E+00  0.00000000E+00
  0.00000000E+00  0.00000000E+00  0.00000000E+00
  0.00000000E+00  0.00000000E+00  0.00000000E+00
  0.00000000E+00  0.00000000E+00  0.00000000E+00
  0.00000000E+00  0.00000000E+00  0.00000000E+00
  0.00000000E+00  0.00000000E+00  0.00000000E+00
  0.00000000E+00  0.00000000E+00  0.00000000E+00
  0.00000000E+00  0.00000000E+00  0.00000000E+00
  0.00000000E+00  0.00000000E+00  0.00000000E+00
  0.00000000E+00  0.00000000E+00  0.00000000E+00
  0.00000000E+00  0.00000000E+00  0.00000000E+00
  0.00000000E+00  0.00000000E+00  0.00000000E+00
  0.00000000E+00  0.00000000E+00  0.00000000E+00
  0.00000000E+00  0.00000000E+00  0.00000000E+00
  0.00000000E+00  0.00000000E+00  0.00000000E+00
  0.00000000E+00  0.00000000E+00  0.00000000E+00
  0.00000000E+00  0.00000000E+00  0.00000000E+00
  0.00000000E+00  0.00000000E+00  0.00000000E+00
  0.00000000E+00  0.00000000E+00  0.00000000E+00
  0.00000000E+00  0.00000000E+00  0.00000000E+00
  0.00000000E+00  0.00000000E+00  0.00000000E+00
  0.00000000E+00  0.00000000E+00  0.00000000E+00
  0.00000000E+00  0.00000000E+00  0.00000000E+00
  0.00000000E+00  0.00000000E+00  0.00000000E+00
  0.00000000E+00  0.00000000E+00  0.00000000E+00
  0.00000000E+00  0.00000000E+00  0.00000000E+00
  0.00000000E+00  0.00000000E+00  0.00000000E+00
  0.00000000E+00  0.00000000E+00  0.00000000E+00
