FCC Cu                                  
   1.00000000000000     
    10.8900003433000006    0.0000000000000000    0.0000000000000000
     0.0000000000000000    7.7003931998999997    0.0000000000000000
     0.0000000000000000    0.0000000000000000   22.7003929999999983
   Cu
    63
Selective dynamics
Cartesian
0.0 0.0 0.0
0.0 2.566797733000018 0.0
0.0 5.133595467 0.0
3.6300001139999645 0.0 0.0
3.6300001139999645 2.566797733000018 0.0
3.6300001139999645 5.133595467 0.0
7.260000228999964 0.0 0.0
7.260000228999964 2.566797733000018 0.0
7.260000228999964 5.133595467 0.0
1.8150000569999822 1.2833988669999907 1.283398829000009
1.8150000569999822 3.850196600000009 1.283398829000009
1.8150000569999822 6.416994333999991 1.283398829000009
5.445000171000024 1.2833988669999907 1.283398829000009
5.445000171000024 3.850196600000009 1.283398829000009
5.445000171000024 6.416994333999991 1.283398829000009
9.075000286000023 1.2833988669999907 1.283398829000009
9.075000286000023 3.850196600000009 1.283398829000009
9.075000286000023 6.416994333999991 1.283398829000009
0.0 0.0 2.5214813247414534
0.0 2.566797733000018 2.5214813247414534
0.0 5.133595467 2.5214813247414534
3.6300001139999645 0.0 2.5214813247414534
3.6300001139999645 2.566797733000018 2.5214813247414534
3.6300001139999645 5.133595467 2.5214813247414534
7.260000228999964 0.0 2.5214813247414534
7.260000228999964 2.566797733000018 2.5214813247414534
7.260000228999964 5.133595467 2.5214813247414534
1.8150000569999822 1.2833988669999907 3.7817435264392927
1.8150000569999822 3.850196600000009 3.7817435264392927
1.8150000569999822 6.416994333999991 3.7817435264392927
5.445000171000024 1.2833988669999907 3.7817435264392927
5.445000171000024 3.850196600000009 3.7817435264392927
5.445000171000024 6.416994333999991 3.7817435264392927
9.075000286000023 1.2833988669999907 3.7817435264392927
9.075000286000023 3.850196600000009 3.7817435264392927
9.075000286000023 6.416994333999991 3.7817435264392927
0.0 0.0 5.009707206123519
0.0 2.566797733000018 5.009707206123519
0.0 5.133595467 5.009707206123519
3.6300001139999645 0.0 5.009707206123519
3.6300001139999645 2.566797733000018 5.009707206123519
3.6300001139999645 5.133595467 5.009707206123519
7.260000228999964 0.0 5.009707206123519
7.260000228999964 2.566797733000018 5.009707206123519
7.260000228999964 5.133595467 5.009707206123519
1.8150000569999822 1.2833988669999907 6.316825026410216
1.8150000569999822 3.850196600000009 6.316825026410216
1.8150000569999822 6.416994333999991 6.316825026410216
5.445000171000024 1.2833988669999907 6.316825026410216
5.445000171000024 3.850196600000009 6.316825026410216
5.445000171000024 6.416994333999991 6.316825026410216
9.075000286000023 1.2833988669999907 6.316825026410216
9.075000286000023 3.850196600000009 6.316825026410216
9.075000286000023 6.416994333999991 6.316825026410216
0.0 0.0 7.4647307887386845
0.0 2.566797733000018 7.4647307887386845
0.0 5.133595467 7.4647307887386845
3.6300001139999645 0.0 7.4647307887386845
3.6300001139999645 2.566797733000018 7.4647307887386845
3.6300001139999645 5.133595467 7.4647307887386845
7.260000228999964 0.0 7.4647307887386845
7.260000228999964 2.566797733000018 7.4647307887386845
7.260000228999964 5.133595467 7.4647307887386845
