FCC Cu                                  
   1.00000000000000     
     2.5667977333000001    0.0000000000000000    0.0000000000000000
     1.2833988667000000    2.2229120434000000    0.0000000000000000
     0.0000000000000000    0.0000000000000000   29.6704711914000008
   Cu   H 
     8     2
Direct
 -0.0010475195760701  0.0020950391521403 -0.0045307174857558
  0.3316171954073323  0.3367656094450600  0.0628245016820004
  0.6630156139263453  0.6739687718875772  0.1312585845172090
 -0.0057195228300269  0.0114390456600538  0.2001069189519589
  0.3277051836555830  0.3445896329485583  0.2682745687480168
  0.6603982272672447  0.6792035452057784  0.3372318917885146
 -0.0090546973361902  0.0181093946723804  0.4056818072438173
  0.3234565406550533  0.3530869189496181  0.4731833947722653
  0.8198834934774564  0.3602330131879345  0.5753670930619998
  0.7219475738183528  0.5561048524930609  0.5545282435473180
 
  0.00000000E+00  0.00000000E+00  0.00000000E+00
  0.00000000E+00  0.00000000E+00  0.00000000E+00
  0.00000000E+00  0.00000000E+00  0.00000000E+00
  0.00000000E+00  0.00000000E+00  0.00000000E+00
  0.00000000E+00  0.00000000E+00  0.00000000E+00
  0.00000000E+00  0.00000000E+00  0.00000000E+00
  0.00000000E+00  0.00000000E+00  0.00000000E+00
  0.00000000E+00  0.00000000E+00  0.00000000E+00
  0.00000000E+00  0.00000000E+00  0.00000000E+00
  0.00000000E+00  0.00000000E+00  0.00000000E+00
