FCC Cu                                  
   1.00000000000000     
     7.2600002289000001    0.0000000000000000    0.0000000000000000
     0.0000000000000000    5.1335954666000001    0.0000000000000000
     0.0000000000000000    0.0000000000000000   21.4169939999999990
   Cu
    24
Selective dynamics
Direct
  0.0000000000000000  0.0000000000000000  0.0000000000000000   F   F   F
  0.0000000000000000  0.4999999999415650  0.0000000000000000   F   F   F
  0.4999999999380194  0.0000000000000000  0.0000000000000000   F   F   F
  0.4999999999380194  0.4999999999415650  0.0000000000000000   F   F   F
  0.2499999999690061  0.2500000000681766  0.0599243212656262   F   F   F
  0.2499999999690061  0.7500000000097415  0.0599243212656262   F   F   F
  0.7499999999070255  0.2500000000681766  0.0599243212656262   F   F   F
  0.7499999999070255  0.7500000000097415  0.0599243212656262   F   F   F
 -0.0000000000000000  0.0000000000000000  0.1186448480266291   T   T   T
  0.0000000000000000  0.4999999999415650  0.1186448480266291   T   T   T
  0.4999999999380194 -0.0000000000000000  0.1186448480266291   T   T   T
  0.4999999999380194  0.4999999999415650  0.1186448480266291   T   T   T
  0.2499999999690061  0.2500000000681766  0.1754681083388535   T   T   T
  0.2499999999690061  0.7500000000097415  0.1754681083388535   T   T   T
  0.7499999999070255  0.2500000000681766  0.1754681083388535   T   T   T
  0.7499999999070255  0.7500000000097415  0.1754681083388535   T   T   T
  0.0000000000000000 -0.0000000000000000  0.2368663873696753   T   T   T
  0.0000000000000000  0.4999999999415650  0.2368663873696753   T   T   T
  0.4999999999380194 -0.0000000000000000  0.2368663873696753   T   T   T
  0.4999999999380194  0.4999999999415650  0.2368663873696753   T   T   T
  0.2499999999690061  0.2500000000681766  0.2903522282367306   T   T   T
  0.2499999999690061  0.7500000000097415  0.2903522282367306   T   T   T
  0.7499999999070255  0.2500000000681766  0.2903522282367306   T   T   T
  0.7499999999070255  0.7500000000097415  0.2903522282367306   T   T   T
 
  0.00000000E+00  0.00000000E+00  0.00000000E+00
  0.00000000E+00  0.00000000E+00  0.00000000E+00
  0.00000000E+00  0.00000000E+00  0.00000000E+00
  0.00000000E+00  0.00000000E+00  0.00000000E+00
  0.00000000E+00  0.00000000E+00  0.00000000E+00
  0.00000000E+00  0.00000000E+00  0.00000000E+00
  0.00000000E+00  0.00000000E+00  0.00000000E+00
  0.00000000E+00  0.00000000E+00  0.00000000E+00
  0.00000000E+00  0.00000000E+00  0.00000000E+00
  0.00000000E+00  0.00000000E+00  0.00000000E+00
  0.00000000E+00  0.00000000E+00  0.00000000E+00
  0.00000000E+00  0.00000000E+00  0.00000000E+00
  0.00000000E+00  0.00000000E+00  0.00000000E+00
  0.00000000E+00  0.00000000E+00  0.00000000E+00
  0.00000000E+00  0.00000000E+00  0.00000000E+00
  0.00000000E+00  0.00000000E+00  0.00000000E+00
  0.00000000E+00  0.00000000E+00  0.00000000E+00
  0.00000000E+00  0.00000000E+00  0.00000000E+00
  0.00000000E+00  0.00000000E+00  0.00000000E+00
  0.00000000E+00  0.00000000E+00  0.00000000E+00
  0.00000000E+00  0.00000000E+00  0.00000000E+00
  0.00000000E+00  0.00000000E+00  0.00000000E+00
  0.00000000E+00  0.00000000E+00  0.00000000E+00
  0.00000000E+00  0.00000000E+00  0.00000000E+00
