FCC Cu                                  
   1.00000000000000     
     7.2600002289000001    0.0000000000000000    0.0000000000000000
     0.0000000000000000    5.1335954666000001    0.0000000000000000
     0.0000000000000000    0.0000000000000000   23.9837913512999990
   Cu   H 
    32     2
Selective dynamics
Direct
  0.0000000000000000  0.0000000000000000  0.0000000000000000   F   F   F
  0.0000000000000000  0.4999999999415579  0.0000000000000000   F   F   F
  0.4999999999380194  0.0000000000000000  0.0000000000000000   F   F   F
  0.4999999999380194  0.4999999999415579  0.0000000000000000   F   F   F
  0.2499999999690061  0.2500000000681766  0.0535110904777980   F   F   F
  0.2499999999690061  0.7500000000097415  0.0535110904777980   F   F   F
  0.7499999999070255  0.2500000000681766  0.0535110904777980   F   F   F
  0.7499999999070255  0.7500000000097415  0.0535110904777980   F   F   F
  0.0000000000000000  0.0000000000000000  0.1054137052072122   F   F   F
  0.0000000000000000  0.4999999999415579  0.1054137052072122   F   F   F
  0.4999999999380194  0.0000000000000000  0.1054137052072122   F   F   F
  0.4999999999380194  0.4999999999415579  0.1054137052072122   F   F   F
  0.2499999999690061  0.2501206064842671  0.1571459986016077   T   T   T
  0.2499999999690061  0.7498793935936509  0.1571459986016077   T   T   T
  0.7499999999070255  0.2498801468615255  0.1572594003556340   T   T   T
  0.7499999999070255  0.7501198532163925  0.1572594003556340   T   T   T
 -0.0001487766464669 -0.0000000000000000  0.2087132966371008   T   T   T
  0.0000644271752733  0.4999999999415579  0.2087254605113649   T   T   T
  0.5001487765844862 -0.0000000000000000  0.2087132966371008   T   T   T
  0.4999355727627461  0.4999999999415579  0.2087254605113649   T   T   T
  0.2499999999690061  0.2499691880460266  0.2594202130016500   T   T   T
  0.2499999999690061  0.7500308120318919  0.2594202130016500   T   T   T
  0.7499999999070255  0.2501182792938783  0.2596764337771330   T   T   T
  0.7499999999070255  0.7498817207840399  0.2596764337771330   T   T   T
  0.0000144044169106 -0.0000000000000000  0.3142650503341833   T   T   T
 -0.0000109438412320  0.4999999999415579  0.3142538532270070   T   T   T
  0.4999855955211090 -0.0000000000000000  0.3142650503341833   T   T   T
  0.5000109437792515  0.4999999999415579  0.3142538532270070   T   T   T
  0.2499999999690061  0.2499244978939369  0.3617049722293838   T   T   T
  0.2499999999690061  0.7500755021839813  0.3617049722293838   T   T   T
  0.7499999999070255  0.2494728459417301  0.3618914262259949   T   T   T
  0.7499999999070255  0.7505271541361881  0.3618914262259949   T   T   T
  0.7499999999070255  0.5000000000389591  0.4600435915008613   T   T   T
  0.7499999999070255  0.5000000000389591  0.4916728404973615   T   T   T
 
  0.00000000E+00  0.00000000E+00  0.00000000E+00
  0.00000000E+00  0.00000000E+00  0.00000000E+00
  0.00000000E+00  0.00000000E+00  0.00000000E+00
  0.00000000E+00  0.00000000E+00  0.00000000E+00
  0.00000000E+00  0.00000000E+00  0.00000000E+00
  0.00000000E+00  0.00000000E+00  0.00000000E+00
  0.00000000E+00  0.00000000E+00  0.00000000E+00
  0.00000000E+00  0.00000000E+00  0.00000000E+00
  0.00000000E+00  0.00000000E+00  0.00000000E+00
  0.00000000E+00  0.00000000E+00  0.00000000E+00
  0.00000000E+00  0.00000000E+00  0.00000000E+00
  0.00000000E+00  0.00000000E+00  0.00000000E+00
  0.00000000E+00  0.00000000E+00  0.00000000E+00
  0.00000000E+00  0.00000000E+00  0.00000000E+00
  0.00000000E+00  0.00000000E+00  0.00000000E+00
  0.00000000E+00  0.00000000E+00  0.00000000E+00
  0.00000000E+00  0.00000000E+00  0.00000000E+00
  0.00000000E+00  0.00000000E+00  0.00000000E+00
  0.00000000E+00  0.00000000E+00  0.00000000E+00
  0.00000000E+00  0.00000000E+00  0.00000000E+00
  0.00000000E+00  0.00000000E+00  0.00000000E+00
  0.00000000E+00  0.00000000E+00  0.00000000E+00
  0.00000000E+00  0.00000000E+00  0.00000000E+00
  0.00000000E+00  0.00000000E+00  0.00000000E+00
  0.00000000E+00  0.00000000E+00  0.00000000E+00
  0.00000000E+00  0.00000000E+00  0.00000000E+00
  0.00000000E+00  0.00000000E+00  0.00000000E+00
  0.00000000E+00  0.00000000E+00  0.00000000E+00
  0.00000000E+00  0.00000000E+00  0.00000000E+00
  0.00000000E+00  0.00000000E+00  0.00000000E+00
  0.00000000E+00  0.00000000E+00  0.00000000E+00
  0.00000000E+00  0.00000000E+00  0.00000000E+00
  0.00000000E+00  0.00000000E+00  0.00000000E+00
  0.00000000E+00  0.00000000E+00  0.00000000E+00
