FCC Cu                                  
   1.00000000000000     
     5.1335954666000001    0.0000000000000000    0.0000000000000000
     2.5667977333000001    4.4458240868000001    0.0000000000000000
     0.0000000000000000    0.0000000000000000   29.6704711914000008
   Cu   H 
    32     2
Direct
  0.0000200499498279 -0.0000120583010888 -0.0003498401775966
 -0.0000070889377797  0.5000141776223219 -0.0003452677355809
  0.4999920082928258 -0.0000120583010888 -0.0003498401775966
  0.4999914747769014  0.5000170504656799 -0.0003276646334563
  0.1666645588491388  0.1666708824380825  0.0688543705811282
  0.1667809696038199  0.6666582811067977  0.0688416065819724
  0.6665832072001050  0.1668335856192652  0.0688175317851044
  0.6665607495036530  0.6666582811067977  0.0688416065819724
  0.3333675456712009  0.3333612920325212  0.1365709682501073
  0.3333356311575874  0.8333287377043013  0.1365760043118120
  0.8332711621209588  0.3333612920325212  0.1365709682501073
  0.8332804815492534  0.8334390368040984  0.1365687168369617
  0.0000633123580329 -0.0000534776906680  0.2047611189067182
 -0.0000267617502328  0.5000535232472278  0.2047548278031666
  0.4999901652742000 -0.0000534776906680  0.2047611189067182
  0.4999572898698422  0.5000854202797991  0.2047467962859425
  0.1667066124450624  0.1665867752462353  0.2728182848595980
  0.1667750487552657  0.6666757112044237  0.2728286868265211
  0.6666085307400927  0.1667829385392909  0.2727901818204017
  0.6665492402545818  0.6666757112044237  0.2728286868265211
  0.3333875741016558  0.3333147863202918  0.3409636562854800
  0.3332812635238240  0.8334374729718280  0.3410135346876252
  0.8332976394027333  0.3333147863202918  0.3409636562854800
  0.8332358085504061  0.8335283828017940  0.3408857311495939
 -0.0002106101729380  0.0001087311033961  0.4087086804426787
 -0.0001055867936340  0.5002111733340304  0.4087551370611816
  0.5001018790111070  0.0001087311033961  0.4087086804426787
  0.5000062693077340  0.4999874614040156  0.4086014910138976
  0.1667126861489548  0.1665746278384510  0.4778407340908962
  0.1669414224608888  0.6666623412549098  0.4777567965183344
  0.6665118077237283  0.1669763845720205  0.4778089620227116
  0.6663962364984725  0.6666623412549098  0.4777567965183344
  0.9169747553287924  0.6660504894398176  0.5648730082829975
  0.9170046685030007  0.6659906630914005  0.5903473689394874
 
  0.00000000E+00  0.00000000E+00  0.00000000E+00
  0.00000000E+00  0.00000000E+00  0.00000000E+00
  0.00000000E+00  0.00000000E+00  0.00000000E+00
  0.00000000E+00  0.00000000E+00  0.00000000E+00
  0.00000000E+00  0.00000000E+00  0.00000000E+00
  0.00000000E+00  0.00000000E+00  0.00000000E+00
  0.00000000E+00  0.00000000E+00  0.00000000E+00
  0.00000000E+00  0.00000000E+00  0.00000000E+00
  0.00000000E+00  0.00000000E+00  0.00000000E+00
  0.00000000E+00  0.00000000E+00  0.00000000E+00
  0.00000000E+00  0.00000000E+00  0.00000000E+00
  0.00000000E+00  0.00000000E+00  0.00000000E+00
  0.00000000E+00  0.00000000E+00  0.00000000E+00
  0.00000000E+00  0.00000000E+00  0.00000000E+00
  0.00000000E+00  0.00000000E+00  0.00000000E+00
  0.00000000E+00  0.00000000E+00  0.00000000E+00
  0.00000000E+00  0.00000000E+00  0.00000000E+00
  0.00000000E+00  0.00000000E+00  0.00000000E+00
  0.00000000E+00  0.00000000E+00  0.00000000E+00
  0.00000000E+00  0.00000000E+00  0.00000000E+00
  0.00000000E+00  0.00000000E+00  0.00000000E+00
  0.00000000E+00  0.00000000E+00  0.00000000E+00
  0.00000000E+00  0.00000000E+00  0.00000000E+00
  0.00000000E+00  0.00000000E+00  0.00000000E+00
  0.00000000E+00  0.00000000E+00  0.00000000E+00
  0.00000000E+00  0.00000000E+00  0.00000000E+00
  0.00000000E+00  0.00000000E+00  0.00000000E+00
  0.00000000E+00  0.00000000E+00  0.00000000E+00
  0.00000000E+00  0.00000000E+00  0.00000000E+00
  0.00000000E+00  0.00000000E+00  0.00000000E+00
  0.00000000E+00  0.00000000E+00  0.00000000E+00
  0.00000000E+00  0.00000000E+00  0.00000000E+00
  0.00000000E+00  0.00000000E+00  0.00000000E+00
  0.00000000E+00  0.00000000E+00  0.00000000E+00
