FCC Cu                                  
   1.00000000000000     
     5.1335954666000001    0.0000000000000000    0.0000000000000000
     2.5667977333000001    4.4458240868000001    0.0000000000000000
     0.0000000000000000    0.0000000000000000   23.3831253052000001
   Cu
    20
Selective dynamics
Cartesian
0.0 0.0 0.0
8.713841948938839e-10 2.222912043000014 0.0
3.850196599500028 0.0 0.0
3.850196600371412 2.222912043000014 0.0
1.2833988672904706 0.7409706810000152 2.0957814609999987
1.2833988681618556 2.9638827239999976 2.0957814609999987
5.133595466790443 0.7409706810000152 2.0957814609999987
5.133595467661883 2.9638827239999976 2.0957814609999987
2.5667977330809415 1.4819413619999988 4.1041250408561964
2.566797733952326 3.704853405000013 4.1041250408561964
6.416994332580914 1.4819413619999988 4.1041250408561964
6.416994333452354 3.704853405000013 4.1041250408561964
0.0 -0.0 6.10889039969747
8.713841948938839e-10 2.222912043000014 6.10889039969747
3.850196599500028 -0.0 6.10889039969747
3.850196600371412 2.222912043000014 6.10889039969747
1.2833988672904706 0.7409706810000152 8.152039113263944
1.2833988681618556 2.9638827239999976 8.152039113263944
5.133595466790443 0.7409706810000152 8.152039113263944
5.133595467661883 2.9638827239999976 8.152039113263944
