FCC Cu                                  
   1.00000000000000     
     7.2600002289000001    0.0000000000000000    0.0000000000000000
     0.0000000000000000    7.2600002289000001    0.0000000000000000
     0.0000000000000000    0.0000000000000000   27.7049999237000009
   Cu   H 
    64     2
Direct
  0.0000000000000000 -0.0025094881574021  0.0076231566104765
  0.0000000000000000  0.4975952638109153  0.0075987290581159
  0.4999999999380194 -0.0026104106449127  0.0076335658238472
  0.4999999999380194  0.4973499203026721  0.0077019236005037
  0.2499967055045242  0.2475059688536367  0.0076265083942678
  0.2499273433368953  0.7476321783507418  0.0076428251932627
  0.7500032943715071  0.2475059688536367  0.0076265083942678
  0.7500726565391367  0.7476321783507418  0.0076428251932627
  0.0000000000000000  0.2474578345356787  0.0698889536795956
  0.0000000000000000  0.7476034263299600  0.0698429705541822
  0.4999999999380194  0.2476549083346463  0.0698046955288314
  0.4999999999380194  0.7475994921616337  0.0699004535361552
  0.2499154506754095 -0.0026501019100381  0.0698718915112074
  0.2500298940863936  0.4974427765913473  0.0698310956112739
  0.7500845492006222 -0.0026501019100381  0.0698718915112074
  0.7499701057896382  0.4974427765913473  0.0698310956112739
  0.0000000000000000 -0.0025191933826188  0.1334667827425854
  0.0000000000000000  0.4977264827697073  0.1335193618166624
  0.4999999999380194 -0.0022596389038466  0.1335091550556975
  0.4999999999380194  0.4975620653078217  0.1334283003658179
  0.2502202337917936  0.2477508921162533  0.1334957245882375
  0.2500183422064419  0.7476435246867970  0.1334828033616729
  0.7497797660842382  0.2477508921162533  0.1334957245882375
  0.7499816576695901  0.7476435246867970  0.1334828033616729
  0.0000000000000000  0.2477479369790734  0.1963128634213585
  0.0000000000000000  0.7478985164997709  0.1964509489226632
  0.4999999999380194  0.2482060896706046  0.1964772947769967
  0.4999999999380194  0.7478326457881873  0.1963670314844057
  0.2499365246445371 -0.0021275572568952  0.1963794937343845
  0.2502325475448752  0.4980933767201973  0.1963863249711305
  0.7500634752314946 -0.0021275572568952  0.1963794937343845
  0.7497674523311559  0.4980933767201973  0.1963863249711305
  0.0000000000000000 -0.0020838744118862  0.2588465806417528
  0.0000000000000000  0.4976552132061425  0.2588690930348940
  0.4999999999380194 -0.0021497413496690  0.2587994490781041
  0.4999999999380194  0.4981205867232426  0.2590203027003636
  0.2497521933217477  0.2478688238914687  0.2588563688817567
  0.2500174467588119  0.7478371565048036  0.2589307940912203
  0.7502478065542838  0.2478688238914687  0.2588563688817567
  0.7499825531172197  0.7478371565048036  0.2589307940912203
  0.0000000000000000  0.2478555014134517  0.3217943058424109
  0.0000000000000000  0.7478322962369993  0.3218146401430989
  0.4999999999380194  0.2480078704118468  0.3216760077307198
  0.4999999999380194  0.7481530927210887  0.3218250100041517
  0.2499493622591651 -0.0019481731118530  0.3217031467300229
  0.2498322077552159  0.4979747123108386  0.3217874623789866
  0.7500506376168660 -0.0019481731118530  0.3217031467300229
  0.7501677921208157  0.4979747123108386  0.3217874623789866
  0.0000000000000000 -0.0022602459018707  0.3854770329883483
  0.0000000000000000  0.4978957189960486  0.3854161585764724
  0.4999999999380194 -0.0020965487894979  0.3855174563988772
  0.4999999999380194  0.4977941678403146  0.3854363205817559
  0.2501864253870830  0.2480372481140981  0.3854128801787011
  0.2502229986092253  0.7481562330507795  0.3855389151174652
  0.7498135744889486  0.2480372481140981  0.3854128801787011
  0.7497770012668067  0.7481562330507795  0.3855389151174652
  0.0000000000000000  0.2478376037327631  0.4476779998927017
  0.0000000000000000  0.7474366574508117  0.4476864181139401
  0.4999999999380194  0.2475541531953235  0.4477464141998119
  0.4999999999380194  0.7486880500636792  0.4477066854529677
  0.2498463358645243 -0.0018901068820605  0.4476857113017076
  0.2496126420828405  0.4971563929138660  0.4474602326050161
  0.7501536640115071 -0.0018901068820605  0.4476857113017076
  0.7503873577931908  0.4971563929138660  0.4474602326050161
  0.4999999999380194  0.5912968104570874  0.5258808298284975
  0.4999999999380194  0.6539149613119994  0.5479507457323803
 
  0.00000000E+00  0.00000000E+00  0.00000000E+00
  0.00000000E+00  0.00000000E+00  0.00000000E+00
  0.00000000E+00  0.00000000E+00  0.00000000E+00
  0.00000000E+00  0.00000000E+00  0.00000000E+00
  0.00000000E+00  0.00000000E+00  0.00000000E+00
  0.00000000E+00  0.00000000E+00  0.00000000E+00
  0.00000000E+00  0.00000000E+00  0.00000000E+00
  0.00000000E+00  0.00000000E+00  0.00000000E+00
  0.00000000E+00  0.00000000E+00  0.00000000E+00
  0.00000000E+00  0.00000000E+00  0.00000000E+00
  0.00000000E+00  0.00000000E+00  0.00000000E+00
  0.00000000E+00  0.00000000E+00  0.00000000E+00
  0.00000000E+00  0.00000000E+00  0.00000000E+00
  0.00000000E+00  0.00000000E+00  0.00000000E+00
  0.00000000E+00  0.00000000E+00  0.00000000E+00
  0.00000000E+00  0.00000000E+00  0.00000000E+00
  0.00000000E+00  0.00000000E+00  0.00000000E+00
  0.00000000E+00  0.00000000E+00  0.00000000E+00
  0.00000000E+00  0.00000000E+00  0.00000000E+00
  0.00000000E+00  0.00000000E+00  0.00000000E+00
  0.00000000E+00  0.00000000E+00  0.00000000E+00
  0.00000000E+00  0.00000000E+00  0.00000000E+00
  0.00000000E+00  0.00000000E+00  0.00000000E+00
  0.00000000E+00  0.00000000E+00  0.00000000E+00
  0.00000000E+00  0.00000000E+00  0.00000000E+00
  0.00000000E+00  0.00000000E+00  0.00000000E+00
  0.00000000E+00  0.00000000E+00  0.00000000E+00
  0.00000000E+00  0.00000000E+00  0.00000000E+00
  0.00000000E+00  0.00000000E+00  0.00000000E+00
  0.00000000E+00  0.00000000E+00  0.00000000E+00
  0.00000000E+00  0.00000000E+00  0.00000000E+00
  0.00000000E+00  0.00000000E+00  0.00000000E+00
  0.00000000E+00  0.00000000E+00  0.00000000E+00
  0.00000000E+00  0.00000000E+00  0.00000000E+00
  0.00000000E+00  0.00000000E+00  0.00000000E+00
  0.00000000E+00  0.00000000E+00  0.00000000E+00
  0.00000000E+00  0.00000000E+00  0.00000000E+00
  0.00000000E+00  0.00000000E+00  0.00000000E+00
  0.00000000E+00  0.00000000E+00  0.00000000E+00
  0.00000000E+00  0.00000000E+00  0.00000000E+00
  0.00000000E+00  0.00000000E+00  0.00000000E+00
  0.00000000E+00  0.00000000E+00  0.00000000E+00
  0.00000000E+00  0.00000000E+00  0.00000000E+00
  0.00000000E+00  0.00000000E+00  0.00000000E+00
  0.00000000E+00  0.00000000E+00  0.00000000E+00
  0.00000000E+00  0.00000000E+00  0.00000000E+00
  0.00000000E+00  0.00000000E+00  0.00000000E+00
  0.00000000E+00  0.00000000E+00  0.00000000E+00
  0.00000000E+00  0.00000000E+00  0.00000000E+00
  0.00000000E+00  0.00000000E+00  0.00000000E+00
  0.00000000E+00  0.00000000E+00  0.00000000E+00
  0.00000000E+00  0.00000000E+00  0.00000000E+00
  0.00000000E+00  0.00000000E+00  0.00000000E+00
  0.00000000E+00  0.00000000E+00  0.00000000E+00
  0.00000000E+00  0.00000000E+00  0.00000000E+00
  0.00000000E+00  0.00000000E+00  0.00000000E+00
  0.00000000E+00  0.00000000E+00  0.00000000E+00
  0.00000000E+00  0.00000000E+00  0.00000000E+00
  0.00000000E+00  0.00000000E+00  0.00000000E+00
  0.00000000E+00  0.00000000E+00  0.00000000E+00
  0.00000000E+00  0.00000000E+00  0.00000000E+00
  0.00000000E+00  0.00000000E+00  0.00000000E+00
  0.00000000E+00  0.00000000E+00  0.00000000E+00
  0.00000000E+00  0.00000000E+00  0.00000000E+00
  0.00000000E+00  0.00000000E+00  0.00000000E+00
  0.00000000E+00  0.00000000E+00  0.00000000E+00
