FCC Cu                                  
   1.00000000000000     
     5.1335954666000001    0.0000000000000000    0.0000000000000000
     2.5667977333000001    4.4458240868000001    0.0000000000000000
     0.0000000000000000    0.0000000000000000   29.6704711914000008
   Cu   H 
    32     2
Direct
 -0.0012456010712074  0.0025025120520934 -0.0011012651856834
 -0.0012229874341457  0.5024459746150536 -0.0010675371434103
  0.4987430889606789  0.0025025120520934 -0.0011012651856834
  0.4987418653339953  0.5025162693514924 -0.0011134383833035
  0.1650489170170786  0.1699021661022033  0.0681452929760385
  0.1649936701795269  0.6699692883948833  0.0681499483105622
  0.6650669957695333  0.1698660084804101  0.0681435357262145
  0.6650370416398605  0.6699692883948833  0.0681499483105622
  0.3309798236292992  0.3380080851080369  0.1358042985923568
  0.3309917123283898  0.8380165753626965  0.1358056355928424
  0.8310120910873452  0.3380080851080369  0.1358042985923568
  0.8309598546872099  0.8380802905281859  0.1358098052071566
 -0.0025929854133808  0.0052392173685364  0.2039457666289685
 -0.0026883822236019  0.5053767641939662  0.2039396044186535
  0.4973537679864096  0.0052392173685364  0.2039457666289685
  0.4973724323266440  0.5052551353661948  0.2039271185907401
  0.1644757812465580  0.1710484376432441  0.2719566934600169
  0.1646813791935194  0.6708433638307111  0.2719411632102962
  0.6645508832501690  0.1708982335191384  0.2719273008560598
  0.6644752571900406  0.6708433638307111  0.2719411632102962
  0.3310448375904270  0.3381237268728089  0.3401090687464002
  0.3308801624673414  0.8382396750847932  0.3401005535858495
  0.8308314353614450  0.3381237268728089  0.3401090687464002
  0.8309420794390258  0.8381158410245539  0.3400660272552447
 -0.0028654048002373  0.0056105163373942  0.4077339146701910
  0.9971823120841058  0.5056353755785510  0.4077630495875906
  0.4972548884044081  0.0056105163373942  0.4077339146701910
  0.4971752297298428  0.5056495405597975  0.4077422867880711
  0.1642570957333334  0.1714858086696934  0.4769066855428137
  0.1641389872074783  0.6719292728807963  0.4769209774779479
  0.6640746927808175  0.1718506144578410  0.4768680051020761
  0.6639317401259974  0.6719292728807963  0.4769209774779479
  0.9321974477294033  0.6356051046385949  0.5891349606764728
  0.8883209356162797  0.7233581288648417  0.5673369286536620
 
  0.00000000E+00  0.00000000E+00  0.00000000E+00
  0.00000000E+00  0.00000000E+00  0.00000000E+00
  0.00000000E+00  0.00000000E+00  0.00000000E+00
  0.00000000E+00  0.00000000E+00  0.00000000E+00
  0.00000000E+00  0.00000000E+00  0.00000000E+00
  0.00000000E+00  0.00000000E+00  0.00000000E+00
  0.00000000E+00  0.00000000E+00  0.00000000E+00
  0.00000000E+00  0.00000000E+00  0.00000000E+00
  0.00000000E+00  0.00000000E+00  0.00000000E+00
  0.00000000E+00  0.00000000E+00  0.00000000E+00
  0.00000000E+00  0.00000000E+00  0.00000000E+00
  0.00000000E+00  0.00000000E+00  0.00000000E+00
  0.00000000E+00  0.00000000E+00  0.00000000E+00
  0.00000000E+00  0.00000000E+00  0.00000000E+00
  0.00000000E+00  0.00000000E+00  0.00000000E+00
  0.00000000E+00  0.00000000E+00  0.00000000E+00
  0.00000000E+00  0.00000000E+00  0.00000000E+00
  0.00000000E+00  0.00000000E+00  0.00000000E+00
  0.00000000E+00  0.00000000E+00  0.00000000E+00
  0.00000000E+00  0.00000000E+00  0.00000000E+00
  0.00000000E+00  0.00000000E+00  0.00000000E+00
  0.00000000E+00  0.00000000E+00  0.00000000E+00
  0.00000000E+00  0.00000000E+00  0.00000000E+00
  0.00000000E+00  0.00000000E+00  0.00000000E+00
  0.00000000E+00  0.00000000E+00  0.00000000E+00
  0.00000000E+00  0.00000000E+00  0.00000000E+00
  0.00000000E+00  0.00000000E+00  0.00000000E+00
  0.00000000E+00  0.00000000E+00  0.00000000E+00
  0.00000000E+00  0.00000000E+00  0.00000000E+00
  0.00000000E+00  0.00000000E+00  0.00000000E+00
  0.00000000E+00  0.00000000E+00  0.00000000E+00
  0.00000000E+00  0.00000000E+00  0.00000000E+00
  0.00000000E+00  0.00000000E+00  0.00000000E+00
  0.00000000E+00  0.00000000E+00  0.00000000E+00
