FCC Cu                                  
1.0
        5.1335954666         0.0000000000         0.0000000000
        2.5667977333         4.4458240868         0.0000000000
        0.0000000000         0.0000000000        27.5746898651
   Cu
   28
Cartesian
     0.000000000         0.000000000         0.000000000
     1.283398866         2.222912043         0.000000000
     2.566797733         0.000000000         0.000000000
     3.850196600         2.222912043         0.000000000
     1.283398867         0.740970681         2.095781586
     2.566797734         2.963882724         2.095781586
     3.850196600         0.740970681         2.095781586
     5.133595467         2.963882724         2.095781586
     2.566797733         1.481941362         4.108776216
     3.850196600         3.704853405         4.108776216
     5.133595466         1.481941362         4.108776216
     6.416994333         3.704853405         4.108776216
     0.000000000         0.000000000         6.139205499
     1.283398866         2.222912043         6.139205499
     2.566797733         0.000000000         6.139205499
     3.850196600         2.222912043         6.139205499
     1.283398867         0.740970681         8.169235766
     2.566797734         2.963882724         8.169235766
     3.850196600         0.740970681         8.169235766
     5.133595467         2.963882724         8.169235766
     2.566797733         1.481941362        10.184049075
     3.850196600         3.704853405        10.184049075
     5.133595466         1.481941362        10.184049075
     6.416994333         3.704853405        10.184049075
     0.000000000         0.000000000        12.250941059
     1.283398866         2.222912043        12.250941059
     2.566797733         0.000000000        12.250941059
     3.850196600         2.222912043        12.250941059
