FCC Cu                                  
   1.00000000000000     
     3.6300001144000000    0.0000000000000000    0.0000000000000000
     0.0000000000000000    2.5667977333000001    0.0000000000000000
     0.0000000000000000    0.0000000000000000   23.9837920699999998
   Cu
     8
Selective dynamics
Cartesian
0.0 0.0 0.0
1.8150000570000033 1.283398866999991 1.2833988670000476
0.0 0.0 2.5106587579810427
1.8150000570000033 1.283398866999991 3.7877592098117843
0.0 0.0 5.053600616836096
1.8150000570000033 1.283398866999991 6.305110570409275
0.0 0.0 7.605642186624523
1.8150000570000033 1.283398866999991 8.746310988334045
