FCC Cu                                  
   1.00000000000000     
    10.8900003433000006    0.0000000000000000    0.0000000000000000
     0.0000000000000000   10.8900003433000006    0.0000000000000000
     0.0000000000000000    0.0000000000000000   27.7049999237000009
   Cu   H 
   144     2
Selective dynamics
Direct
  0.0000000000000000  0.0000000000000000  0.0000000000000000   F   F   F
  0.0000000000000000  0.3333333332935382  0.0000000000000000   F   F   F
  0.0000000000000000  0.6666666666789069  0.0000000000000000   F   F   F
  0.3333333332935382  0.0000000000000000  0.0000000000000000   F   F   F
  0.3333333332935382  0.3333333332935382  0.0000000000000000   F   F   F
  0.3333333332935382  0.6666666666789069  0.0000000000000000   F   F   F
  0.6666666666789069  0.0000000000000000  0.0000000000000000   F   F   F
  0.6666666666789069  0.3333333332935382  0.0000000000000000   F   F   F
  0.6666666666789069  0.6666666666789069  0.0000000000000000   F   F   F
  0.1666666666467691  0.1666666666467691  0.0000000000000000   F   F   F
  0.1666666666467691  0.4999999999403144  0.0000000000000000   F   F   F
  0.1666666666467691  0.8333333333256832  0.0000000000000000   F   F   F
  0.4999999999403144  0.1666666666467691  0.0000000000000000   F   F   F
  0.4999999999403144  0.4999999999403144  0.0000000000000000   F   F   F
  0.4999999999403144  0.8333333333256832  0.0000000000000000   F   F   F
  0.8333333333256832  0.1666666666467691  0.0000000000000000   F   F   F
  0.8333333333256832  0.4999999999403144  0.0000000000000000   F   F   F
  0.8333333333256832  0.8333333333256832  0.0000000000000000   F   F   F
  0.0000000000000000  0.1666666666467691  0.0655116416169861   F   F   F
  0.0000000000000000  0.4999999999403144  0.0655116416169861   F   F   F
  0.0000000000000000  0.8333333333256832  0.0655116416169861   F   F   F
  0.3333333332935382  0.1666666666467691  0.0655116416169861   F   F   F
  0.3333333332935382  0.4999999999403144  0.0655116416169861   F   F   F
  0.3333333332935382  0.8333333333256832  0.0655116416169861   F   F   F
  0.6666666666789069  0.1666666666467691  0.0655116416169861   F   F   F
  0.6666666666789069  0.4999999999403144  0.0655116416169861   F   F   F
  0.6666666666789069  0.8333333333256832  0.0655116416169861   F   F   F
  0.1666666666467691  0.0000000000000000  0.0655116416169861   F   F   F
  0.1666666666467691  0.3333333332935382  0.0655116416169861   F   F   F
  0.1666666666467691  0.6666666666789069  0.0655116416169861   F   F   F
  0.4999999999403144  0.0000000000000000  0.0655116416169861   F   F   F
  0.4999999999403144  0.3333333332935382  0.0655116416169861   F   F   F
  0.4999999999403144  0.6666666666789069  0.0655116416169861   F   F   F
  0.8333333333256832  0.0000000000000000  0.0655116416169861   F   F   F
  0.8333333333256832  0.3333333332935382  0.0655116416169861   F   F   F
  0.8333333333256832  0.6666666666789069  0.0655116416169861   F   F   F
  0.0000000000000000  0.0000000000000000  0.1311955341119244   F   F   F
  0.0000000000000000  0.3333333332935382  0.1311955341119244   F   F   F
  0.0000000000000000  0.6666666666789069  0.1311955341119244   F   F   F
  0.3333333332935382  0.0000000000000000  0.1311955341119244   F   F   F
  0.3333333332935382  0.3333333332935382  0.1311955341119244   F   F   F
  0.3333333332935382  0.6666666666789069  0.1311955341119244   F   F   F
  0.6666666666789069  0.0000000000000000  0.1311955341119244   F   F   F
  0.6666666666789069  0.3333333332935382  0.1311955341119244   F   F   F
  0.6666666666789069  0.6666666666789069  0.1311955341119244   F   F   F
  0.1666666666467691  0.1666666666467691  0.1311955341119244   F   F   F
  0.1666666666467691  0.4999999999403144  0.1311955341119244   F   F   F
  0.1666666666467691  0.8333333333256832  0.1311955341119244   F   F   F
  0.4999999999403144  0.1666666666467691  0.1311955341119244   F   F   F
  0.4999999999403144  0.4999999999403144  0.1311955341119244   F   F   F
  0.4999999999403144  0.8333333333256832  0.1311955341119244   F   F   F
  0.8333333333256832  0.1666666666467691  0.1311955341119244   F   F   F
  0.8333333333256832  0.4999999999403144  0.1311955341119244   F   F   F
  0.8333333333256832  0.8333333333256832  0.1311955341119244   F   F   F
 -0.0000756270792896  0.1665105952902921  0.1939719957599295   T   T   T
 -0.0000640723484548  0.4999640096227775  0.1939879006763494   T   T   T
 -0.0001567263255493  0.8332651031436412  0.1939586873286381   T   T   T
  0.3333333332935382  0.1664839253767788  0.1939957059833126   T   T   T
  0.3333333332935382  0.5000619286191862  0.1940019247155349   T   T   T
  0.3333333332935382  0.8332687534980867  0.1939810898503731   T   T   T
  0.6667422937581966  0.1665105952902921  0.1939719957599295   T   T   T
  0.6667307390273618  0.4999640096227775  0.1939879006763494   T   T   T
  0.6668233930044565  0.8332651031436412  0.1939586873286381   T   T   T
  0.1666096338091576 -0.0001649988958544  0.1939651371850667   T   T   T
  0.1665516870223127  0.3332364422916258  0.1939935492904384   T   T   T
  0.1666149794686048  0.6666452938888858  0.1939982746439523   T   T   T
  0.5000570327779259 -0.0001649988958544  0.1939651371850667   T   T   T
  0.5001149795647709  0.3332364422916258  0.1939935492904384   T   T   T
  0.5000516871184790  0.6666452938888858  0.1939982746439523   T   T   T
  0.8333333333256832 -0.0002658103872158  0.1939689099100512   T   T   T
  0.8333333333256832  0.3332398106204300  0.1939812771644542   T   T   T
  0.8333333333256832  0.6667264251360434  0.1939460732598058   T   T   T
 -0.0000821954986009 -0.0002690780718702  0.2567975920442317   T   T   T
 -0.0000961576382777  0.3331721233827994  0.2567265185852815   T   T   T
 -0.0001261939747864  0.6666517168380771  0.2567931951821374   T   T   T
  0.3333333332935382 -0.0002321899819421  0.2567286833474250   T   T   T
  0.3333333332935382  0.3331947778715684  0.2566399495346234   T   T   T
  0.3333333332935382  0.6666598913888644  0.2567286401205675   T   T   T
  0.6667488621775081 -0.0002690780718702  0.2567975920442317   T   T   T
  0.6667628243171850  0.3331721233827994  0.2567265185852815   T   T   T
  0.6667928606536933  0.6666517168380771  0.2567931951821374   T   T   T
  0.1664905627479907  0.1663259053376609  0.2567234492913746   T   T   T
  0.1664803801703778  0.5000534980426969  0.2567413855008071   T   T   T
  0.1665665055629149  0.8332272597115725  0.2567797259436327   T   T   T
  0.5001761038390931  0.1663259053376609  0.2567234492913746   T   T   T
  0.5001862864167058  0.5000534980426969  0.2567413855008071   T   T   T
  0.5001001610241687  0.8332272597115725  0.2567797259436327   T   T   T
  0.8333333333256832  0.1664356457194189  0.2567863661379365   T   T   T
  0.8333333333256832  0.4999803671407451  0.2567620950704054   T   T   T
  0.8333333333256832  0.8331969566827547  0.2567745940162345   T   T   T
 -0.0000175929666093  0.1664835692449492  0.3196690850159227   T   T   T
 -0.0000582914258809  0.4998350333705649  0.3196775655501958   T   T   T
 -0.0000781175300855  0.8331480640702130  0.3198008524213941   T   T   T
  0.3333333332935382  0.1662654617554945  0.3195018530062446   T   T   T
  0.3333333332935382  0.5000535690981183  0.3194877847990701   T   T   T
  0.3333333332935382  0.8330793023587392  0.3197767167561374   T   T   T
  0.6666842596455163  0.1664835692449492  0.3196690850159227   T   T   T
  0.6667249581047887  0.4998350333705649  0.3196775655501958   T   T   T
  0.6667447842089929  0.8331480640702130  0.3198008524213941   T   T   T
  0.1667066819921812 -0.0001882295095937  0.3196838876355177   T   T   T
  0.1664627852592874  0.3331665492303340  0.3194844482451110   T   T   T
  0.1666604836936931  0.6665911407018591  0.3196769999863212   T   T   T
  0.4999599845949023 -0.0001882295095937  0.3196838876355177   T   T   T
  0.5002038813277958  0.3331665492303340  0.3194844482451110   T   T   T
  0.5000061828933905  0.6665911407018591  0.3196769999863212   T   T   T
  0.8333333333256832 -0.0002979412581299  0.3198005577747584   T   T   T
  0.8333333333256832  0.3332217960146829  0.3197543736797257   T   T   T
  0.8333333333256832  0.6665364803195259  0.3197995097446704   T   T   T
  0.0000998169781447 -0.0000922932018553  0.3834537035422442   T   T   T
 -0.0001222083456588  0.3331447771353925  0.3832126397743312   T   T   T
  0.0000618508019917  0.6664043132172358  0.3834745275634261   T   T   T
  0.3333333332935382 -0.0003279862866035  0.3832255505521197   T   T   T
  0.3333333332935382  0.3331718084280580  0.3830230578244985   T   T   T
  0.3333333332935382  0.6665327019973659  0.3832668120096765   T   T   T
  0.6665668497007627 -0.0000922932018553  0.3834537035422442   T   T   T
  0.6667888750245651  0.3331447771353925  0.3832126397743312   T   T   T
  0.6666048158769157  0.6664043132172358  0.3834745275634261   T   T   T
  0.1666618753242956  0.1664437273345124  0.3832473874678647   T   T   T
  0.1666808066388040  0.4998011693217811  0.3832426885828457   T   T   T
  0.1666922780206724  0.8331696022698361  0.3833808571326940   T   T   T
  0.5000047912627880  0.1664437273345124  0.3832473874678647   T   T   T
  0.4999858599482793  0.4998011693217811  0.3832426885828457   T   T   T
  0.4999743885664111  0.8331696022698361  0.3833808571326940   T   T   T
  0.8333333333256832  0.1665227719287836  0.3833369257779469   T   T   T
  0.8333333333256832  0.4997649422153084  0.3833648451525302   T   T   T
  0.8333333333256832  0.8331344344905655  0.3835569635063342   T   T   T
  0.0001343847476422  0.1666310059310323  0.4459508139676317   T   T   T
  0.0001226137829097  0.4996096685308046  0.4459469752283712   T   T   T
  0.0000646421800797  0.8331681503876316  0.4460590549171192   T   T   T
  0.3333333332935382  0.1661261251731646  0.4456247000182845   T   T   T
  0.3333333332935382  0.5003435869981316  0.4456698642791568   T   T   T
  0.3333333332935382  0.8331207496864924  0.4459613739430003   T   T   T
  0.6665322819312651  0.1666310059310323  0.4459508139676317   T   T   T
  0.6665440528959966  0.4996096685308046  0.4459469752283712   T   T   T
  0.6666020244988273  0.8331681503876316  0.4460590549171192   T   T   T
  0.1668564421931380 -0.0000260621891157  0.4459809018721713   T   T   T
  0.1661377652221103  0.3329140950136611  0.4456049864501018   T   T   T
  0.1667611151016517  0.6664007251112104  0.4459652341486048   T   T   T
  0.4998102243939452 -0.0000260621891157  0.4459809018721713   T   T   T
  0.5005289013649731  0.3329140950136611  0.4456049864501018   T   T   T
  0.4999055514854319  0.6664007251112104  0.4459652341486048   T   T   T
  0.8333333333256832 -0.0000756805780476  0.4460473276184998   T   T   T
  0.8333333333256832  0.3331241922489222  0.4459240857023212   T   T   T
  0.8333333333256832  0.6663889696958749  0.4460627220141163   T   T   T
  0.3333333332935382  0.3543173574920196  0.5265440721975397   T   T   T
  0.3333333332935382  0.3854872748694324  0.5510564270116322   T   T   T
 
  0.00000000E+00  0.00000000E+00  0.00000000E+00
  0.00000000E+00  0.00000000E+00  0.00000000E+00
  0.00000000E+00  0.00000000E+00  0.00000000E+00
  0.00000000E+00  0.00000000E+00  0.00000000E+00
  0.00000000E+00  0.00000000E+00  0.00000000E+00
  0.00000000E+00  0.00000000E+00  0.00000000E+00
  0.00000000E+00  0.00000000E+00  0.00000000E+00
  0.00000000E+00  0.00000000E+00  0.00000000E+00
  0.00000000E+00  0.00000000E+00  0.00000000E+00
  0.00000000E+00  0.00000000E+00  0.00000000E+00
  0.00000000E+00  0.00000000E+00  0.00000000E+00
  0.00000000E+00  0.00000000E+00  0.00000000E+00
  0.00000000E+00  0.00000000E+00  0.00000000E+00
  0.00000000E+00  0.00000000E+00  0.00000000E+00
  0.00000000E+00  0.00000000E+00  0.00000000E+00
  0.00000000E+00  0.00000000E+00  0.00000000E+00
  0.00000000E+00  0.00000000E+00  0.00000000E+00
  0.00000000E+00  0.00000000E+00  0.00000000E+00
  0.00000000E+00  0.00000000E+00  0.00000000E+00
  0.00000000E+00  0.00000000E+00  0.00000000E+00
  0.00000000E+00  0.00000000E+00  0.00000000E+00
  0.00000000E+00  0.00000000E+00  0.00000000E+00
  0.00000000E+00  0.00000000E+00  0.00000000E+00
  0.00000000E+00  0.00000000E+00  0.00000000E+00
  0.00000000E+00  0.00000000E+00  0.00000000E+00
  0.00000000E+00  0.00000000E+00  0.00000000E+00
  0.00000000E+00  0.00000000E+00  0.00000000E+00
  0.00000000E+00  0.00000000E+00  0.00000000E+00
  0.00000000E+00  0.00000000E+00  0.00000000E+00
  0.00000000E+00  0.00000000E+00  0.00000000E+00
  0.00000000E+00  0.00000000E+00  0.00000000E+00
  0.00000000E+00  0.00000000E+00  0.00000000E+00
  0.00000000E+00  0.00000000E+00  0.00000000E+00
  0.00000000E+00  0.00000000E+00  0.00000000E+00
  0.00000000E+00  0.00000000E+00  0.00000000E+00
  0.00000000E+00  0.00000000E+00  0.00000000E+00
  0.00000000E+00  0.00000000E+00  0.00000000E+00
  0.00000000E+00  0.00000000E+00  0.00000000E+00
  0.00000000E+00  0.00000000E+00  0.00000000E+00
  0.00000000E+00  0.00000000E+00  0.00000000E+00
  0.00000000E+00  0.00000000E+00  0.00000000E+00
  0.00000000E+00  0.00000000E+00  0.00000000E+00
  0.00000000E+00  0.00000000E+00  0.00000000E+00
  0.00000000E+00  0.00000000E+00  0.00000000E+00
  0.00000000E+00  0.00000000E+00  0.00000000E+00
  0.00000000E+00  0.00000000E+00  0.00000000E+00
  0.00000000E+00  0.00000000E+00  0.00000000E+00
  0.00000000E+00  0.00000000E+00  0.00000000E+00
  0.00000000E+00  0.00000000E+00  0.00000000E+00
  0.00000000E+00  0.00000000E+00  0.00000000E+00
  0.00000000E+00  0.00000000E+00  0.00000000E+00
  0.00000000E+00  0.00000000E+00  0.00000000E+00
  0.00000000E+00  0.00000000E+00  0.00000000E+00
  0.00000000E+00  0.00000000E+00  0.00000000E+00
  0.00000000E+00  0.00000000E+00  0.00000000E+00
  0.00000000E+00  0.00000000E+00  0.00000000E+00
  0.00000000E+00  0.00000000E+00  0.00000000E+00
  0.00000000E+00  0.00000000E+00  0.00000000E+00
  0.00000000E+00  0.00000000E+00  0.00000000E+00
  0.00000000E+00  0.00000000E+00  0.00000000E+00
  0.00000000E+00  0.00000000E+00  0.00000000E+00
  0.00000000E+00  0.00000000E+00  0.00000000E+00
  0.00000000E+00  0.00000000E+00  0.00000000E+00
  0.00000000E+00  0.00000000E+00  0.00000000E+00
  0.00000000E+00  0.00000000E+00  0.00000000E+00
  0.00000000E+00  0.00000000E+00  0.00000000E+00
  0.00000000E+00  0.00000000E+00  0.00000000E+00
  0.00000000E+00  0.00000000E+00  0.00000000E+00
  0.00000000E+00  0.00000000E+00  0.00000000E+00
  0.00000000E+00  0.00000000E+00  0.00000000E+00
  0.00000000E+00  0.00000000E+00  0.00000000E+00
  0.00000000E+00  0.00000000E+00  0.00000000E+00
  0.00000000E+00  0.00000000E+00  0.00000000E+00
  0.00000000E+00  0.00000000E+00  0.00000000E+00
  0.00000000E+00  0.00000000E+00  0.00000000E+00
  0.00000000E+00  0.00000000E+00  0.00000000E+00
  0.00000000E+00  0.00000000E+00  0.00000000E+00
  0.00000000E+00  0.00000000E+00  0.00000000E+00
  0.00000000E+00  0.00000000E+00  0.00000000E+00
  0.00000000E+00  0.00000000E+00  0.00000000E+00
  0.00000000E+00  0.00000000E+00  0.00000000E+00
  0.00000000E+00  0.00000000E+00  0.00000000E+00
  0.00000000E+00  0.00000000E+00  0.00000000E+00
  0.00000000E+00  0.00000000E+00  0.00000000E+00
  0.00000000E+00  0.00000000E+00  0.00000000E+00
  0.00000000E+00  0.00000000E+00  0.00000000E+00
  0.00000000E+00  0.00000000E+00  0.00000000E+00
  0.00000000E+00  0.00000000E+00  0.00000000E+00
  0.00000000E+00  0.00000000E+00  0.00000000E+00
  0.00000000E+00  0.00000000E+00  0.00000000E+00
  0.00000000E+00  0.00000000E+00  0.00000000E+00
  0.00000000E+00  0.00000000E+00  0.00000000E+00
  0.00000000E+00  0.00000000E+00  0.00000000E+00
  0.00000000E+00  0.00000000E+00  0.00000000E+00
  0.00000000E+00  0.00000000E+00  0.00000000E+00
  0.00000000E+00  0.00000000E+00  0.00000000E+00
  0.00000000E+00  0.00000000E+00  0.00000000E+00
  0.00000000E+00  0.00000000E+00  0.00000000E+00
  0.00000000E+00  0.00000000E+00  0.00000000E+00
  0.00000000E+00  0.00000000E+00  0.00000000E+00
  0.00000000E+00  0.00000000E+00  0.00000000E+00
  0.00000000E+00  0.00000000E+00  0.00000000E+00
  0.00000000E+00  0.00000000E+00  0.00000000E+00
  0.00000000E+00  0.00000000E+00  0.00000000E+00
  0.00000000E+00  0.00000000E+00  0.00000000E+00
  0.00000000E+00  0.00000000E+00  0.00000000E+00
  0.00000000E+00  0.00000000E+00  0.00000000E+00
  0.00000000E+00  0.00000000E+00  0.00000000E+00
  0.00000000E+00  0.00000000E+00  0.00000000E+00
  0.00000000E+00  0.00000000E+00  0.00000000E+00
  0.00000000E+00  0.00000000E+00  0.00000000E+00
  0.00000000E+00  0.00000000E+00  0.00000000E+00
  0.00000000E+00  0.00000000E+00  0.00000000E+00
  0.00000000E+00  0.00000000E+00  0.00000000E+00
  0.00000000E+00  0.00000000E+00  0.00000000E+00
  0.00000000E+00  0.00000000E+00  0.00000000E+00
  0.00000000E+00  0.00000000E+00  0.00000000E+00
  0.00000000E+00  0.00000000E+00  0.00000000E+00
  0.00000000E+00  0.00000000E+00  0.00000000E+00
  0.00000000E+00  0.00000000E+00  0.00000000E+00
  0.00000000E+00  0.00000000E+00  0.00000000E+00
  0.00000000E+00  0.00000000E+00  0.00000000E+00
  0.00000000E+00  0.00000000E+00  0.00000000E+00
  0.00000000E+00  0.00000000E+00  0.00000000E+00
  0.00000000E+00  0.00000000E+00  0.00000000E+00
  0.00000000E+00  0.00000000E+00  0.00000000E+00
  0.00000000E+00  0.00000000E+00  0.00000000E+00
  0.00000000E+00  0.00000000E+00  0.00000000E+00
  0.00000000E+00  0.00000000E+00  0.00000000E+00
  0.00000000E+00  0.00000000E+00  0.00000000E+00
  0.00000000E+00  0.00000000E+00  0.00000000E+00
  0.00000000E+00  0.00000000E+00  0.00000000E+00
  0.00000000E+00  0.00000000E+00  0.00000000E+00
  0.00000000E+00  0.00000000E+00  0.00000000E+00
  0.00000000E+00  0.00000000E+00  0.00000000E+00
  0.00000000E+00  0.00000000E+00  0.00000000E+00
  0.00000000E+00  0.00000000E+00  0.00000000E+00
  0.00000000E+00  0.00000000E+00  0.00000000E+00
  0.00000000E+00  0.00000000E+00  0.00000000E+00
  0.00000000E+00  0.00000000E+00  0.00000000E+00
  0.00000000E+00  0.00000000E+00  0.00000000E+00
  0.00000000E+00  0.00000000E+00  0.00000000E+00
  0.00000000E+00  0.00000000E+00  0.00000000E+00
  0.00000000E+00  0.00000000E+00  0.00000000E+00
  0.00000000E+00  0.00000000E+00  0.00000000E+00
  0.00000000E+00  0.00000000E+00  0.00000000E+00
