FCC Cu                                  
   1.00000000000000     
     7.2600002289000001    0.0000000000000000    0.0000000000000000
     0.0000000000000000    7.2600002289000001    0.0000000000000000
     0.0000000000000000    0.0000000000000000   25.8900000000000006
   Cu
    56
Selective dynamics
Cartesian
0.0 0.0 0.0
0.0 3.630000114000021 0.0
3.630000114000021 0.0 0.0
3.630000114000021 3.630000114000021 0.0
1.8150000569999842 1.8150000569999842 0.0
1.8150000569999842 5.445000171000005 0.0
5.445000171000005 1.8150000569999842 0.0
5.445000171000005 5.445000171000005 0.0
0.0 1.8150000569999842 1.81500002600003
0.0 5.445000171000005 1.81500002600003
3.630000114000021 1.8150000569999842 1.81500002600003
3.630000114000021 5.445000171000005 1.81500002600003
1.8150000569999842 0.0 1.81500002600003
1.8150000569999842 3.630000114000021 1.81500002600003
5.445000171000005 0.0 1.81500002600003
5.445000171000005 3.630000114000021 1.81500002600003
0.0 0.0 3.6420454554712944
-0.0 3.630000114000021 3.6420454554712944
3.630000114000021 0.0 3.6420454554712944
3.630000114000021 3.630000114000021 3.6420454554712944
1.8150000569999842 1.8150000569999842 3.6420454554712944
1.8150000569999842 5.445000171000005 3.6420454554712944
5.445000171000005 1.8150000569999842 3.6420454554712944
5.445000171000005 5.445000171000005 3.6420454554712944
0.0 1.8150000569999842 5.3945933138038
0.0 5.445000171000005 5.3945933138038
3.630000114000021 1.8150000569999842 5.3945933138038
3.630000114000021 5.445000171000005 5.3945933138038
1.8150000569999842 -0.0 5.3945933138038
1.8150000569999842 3.630000114000021 5.3945933138038
5.445000171000005 0.0 5.3945933138038
5.445000171000005 3.630000114000021 5.3945933138038
0.0 -0.0 7.141661946320925
0.0 3.630000114000021 7.141661946320925
3.630000114000021 0.0 7.141661946320925
3.630000114000021 3.630000114000021 7.141661946320925
1.8150000569999842 1.8150000569999842 7.141661946320925
1.8150000569999842 5.445000171000005 7.141661946320925
5.445000171000005 1.8150000569999842 7.141661946320925
5.445000171000005 5.445000171000005 7.141661946320925
-0.0 1.8150000569999842 8.91342959836734
0.0 5.445000171000005 8.91342959836734
3.630000114000021 1.8150000569999842 8.91342959836734
3.630000114000021 5.445000171000005 8.91342959836734
1.8150000569999842 0.0 8.91342959836734
1.8150000569999842 3.630000114000021 8.91342959836734
5.445000171000005 0.0 8.91342959836734
5.445000171000005 3.630000114000021 8.91342959836734
-0.0 -0.0 10.667808862364062
-0.0 3.630000114000021 10.667808862364062
3.630000114000021 -0.0 10.667808862364062
3.630000114000021 3.630000114000021 10.667808862364062
1.8150000569999842 1.8150000569999842 10.667808862364062
1.8150000569999842 5.445000171000005 10.667808862364062
5.445000171000005 1.8150000569999842 10.667808862364062
5.445000171000005 5.445000171000005 10.667808862364062
