FCC Cu                                  
   1.00000000000000     
     3.6300001144000000    0.0000000000000000    0.0000000000000000
     0.0000000000000000    3.6300001144000000    0.0000000000000000
     0.0000000000000000    0.0000000000000000   22.2600000000000016
   Cu
    10
Selective dynamics
Cartesian
0.0 0.0 0.0
1.8150000570000033 1.8150000570000033 0.0
0.0 1.8150000570000033 1.8150000260000112
1.8150000570000033 0.0 1.8150000260000112
0.0 -0.0 3.5853009209563647
1.8150000570000033 1.8150000570000033 3.5853009209563647
-0.0 1.8150000570000033 5.357872610713058
1.8150000570000033 -0.0 5.357872610713058
-0.0 0.0 7.10070354433679
1.8150000570000033 1.8150000570000033 7.10070354433679
