FCC Cu                                  
   1.00000000000000     
     7.2600002289000001    0.0000000000000000    0.0000000000000000
     0.0000000000000000    7.2600002289000001    0.0000000000000000
     0.0000000000000000    0.0000000000000000   27.7049999237000009
   Cu   H 
    64     2
Direct
  0.0000000000000000  0.0003489583932484  0.0078833608641261
  0.0000000000000000  0.5006298722511696  0.0078959086279997
  0.4999999999380194  0.0005086666749140  0.0078889600702260
  0.4999999999380194  0.5004204769756037  0.0078797054767014
  0.2502173288487662  0.2504643408761999  0.0078673479415908
  0.2499945900963593  0.7504860725203882  0.0078890671388182
  0.7497826710272656  0.2504643408761999  0.0078673479415908
  0.7500054097796727  0.7504860725203882  0.0078890671388182
  0.0000000000000000  0.2505357753468731  0.0704056938777094
  0.0000000000000000  0.7505519854271931  0.0702335249292076
  0.4999999999380194  0.2505410337277839  0.0702606107640723
  0.4999999999380194  0.7504565510590487  0.0704633517014535
  0.2499696353090800  0.0005729584711047  0.0702909202128370
  0.2500077228189999  0.5005030378088304  0.0703021172594655
  0.7500303645669522  0.0005729584711047  0.0702909202128370
  0.7499922770570320  0.5005030378088304  0.0703021172594655
  0.0000000000000000 -0.0000128335936563  0.1341949292344713
  0.0000000000000000  0.5011715423472366  0.1341907131637874
  0.4999999999380194  0.0010936977814956  0.1340922480239463
  0.4999999999380194  0.5001167452726289  0.1341318848523306
  0.2505787992633788  0.2505459145427283  0.1341919703437955
  0.2495521589036796  0.7505891257694229  0.1340778369244755
  0.7494212006126532  0.2505459145427283  0.1341919703437955
  0.7504478409723521  0.7505891257694229  0.1340778369244755
  0.0000000000000000  0.2505338158085939  0.1969484097723050
  0.0000000000000000  0.7505222719357935  0.1976361765025333
  0.4999999999380194  0.2505331542215564  0.1976622221123976
  0.4999999999380194  0.7506320962217352  0.1971641731514963
  0.2505618578654784  0.0000402927200429  0.1972315406654615
  0.2504988189592753  0.5010636477750946  0.1972314595678233
  0.7494381420105534  0.0000402927200429  0.1972315406654615
  0.7495011809167563  0.5010636477750946  0.1972314595678233
  0.0000000000000000  0.0009368893406388  0.2598693301877128
  0.0000000000000000  0.4999458717382580  0.2599179644707310
  0.4999999999380194  0.0003569821332487  0.2603303319739063
  0.4999999999380194  0.5008876429486112  0.2602651043873939
  0.2495494340090780  0.2505773028050641  0.2598572720042180
  0.2502996480522770  0.7504401604799894  0.2602469636083276
  0.7504505658669535  0.2505773028050641  0.2598572720042180
  0.7497003518237547  0.7504401604799894  0.2602469636083276
  0.0000000000000000  0.2505776839979355  0.3231956769369270
  0.0000000000000000  0.7503205088223046  0.3231408826051153
  0.4999999999380194  0.2510714603937938  0.3232633077456912
  0.4999999999380194  0.7505034115536473  0.3233867581254757
  0.2497760395284379  0.0007532871771968  0.3230137881005278
  0.2498925757924439  0.5004281599204825  0.3231162986709394
  0.7502239603475939  0.0007532871771968  0.3230137881005278
  0.7501074240835878  0.5004281599204825  0.3231162986709394
  0.0000000000000000  0.0002007364443045  0.3866474149780938
  0.0000000000000000  0.5009656555566755  0.3868444559519671
  0.4999999999380194 -0.0001076072745669  0.3870902090976354
  0.4999999999380194  0.5023847428170880  0.3874487087991241
  0.2503765779004242  0.2509283624090486  0.3866697614466224
  0.2511270687823242  0.7507744265396280  0.3871650003446923
  0.7496234219756072  0.2509283624090486  0.3866697614466224
  0.7488729310937072  0.7507744265396280  0.3871650003446923
  0.0000000000000000  0.2512656688859627  0.4491689758165322
  0.0000000000000000  0.7503826940703872  0.4490684220951613
  0.4999999999380194  0.2503736707205595  0.4493286286476848
  0.4999999999380194  0.7519704394903702  0.4516107321433054
  0.2476174355806965  0.0034065759496800  0.4489761830867371
  0.2491193610704624  0.4989377183710787  0.4493128505122160
  0.7523825642953353  0.0034065759496800  0.4489761830867371
  0.7508806388055697  0.4989377183710787  0.4493128505122160
  0.4999999999380123  0.7099125058580590  0.5144706449102538
  0.4999999999380123  0.8211030896114737  0.5130317619874319
 
  0.00000000E+00  0.00000000E+00  0.00000000E+00
  0.00000000E+00  0.00000000E+00  0.00000000E+00
  0.00000000E+00  0.00000000E+00  0.00000000E+00
  0.00000000E+00  0.00000000E+00  0.00000000E+00
  0.00000000E+00  0.00000000E+00  0.00000000E+00
  0.00000000E+00  0.00000000E+00  0.00000000E+00
  0.00000000E+00  0.00000000E+00  0.00000000E+00
  0.00000000E+00  0.00000000E+00  0.00000000E+00
  0.00000000E+00  0.00000000E+00  0.00000000E+00
  0.00000000E+00  0.00000000E+00  0.00000000E+00
  0.00000000E+00  0.00000000E+00  0.00000000E+00
  0.00000000E+00  0.00000000E+00  0.00000000E+00
  0.00000000E+00  0.00000000E+00  0.00000000E+00
  0.00000000E+00  0.00000000E+00  0.00000000E+00
  0.00000000E+00  0.00000000E+00  0.00000000E+00
  0.00000000E+00  0.00000000E+00  0.00000000E+00
  0.00000000E+00  0.00000000E+00  0.00000000E+00
  0.00000000E+00  0.00000000E+00  0.00000000E+00
  0.00000000E+00  0.00000000E+00  0.00000000E+00
  0.00000000E+00  0.00000000E+00  0.00000000E+00
  0.00000000E+00  0.00000000E+00  0.00000000E+00
  0.00000000E+00  0.00000000E+00  0.00000000E+00
  0.00000000E+00  0.00000000E+00  0.00000000E+00
  0.00000000E+00  0.00000000E+00  0.00000000E+00
  0.00000000E+00  0.00000000E+00  0.00000000E+00
  0.00000000E+00  0.00000000E+00  0.00000000E+00
  0.00000000E+00  0.00000000E+00  0.00000000E+00
  0.00000000E+00  0.00000000E+00  0.00000000E+00
  0.00000000E+00  0.00000000E+00  0.00000000E+00
  0.00000000E+00  0.00000000E+00  0.00000000E+00
  0.00000000E+00  0.00000000E+00  0.00000000E+00
  0.00000000E+00  0.00000000E+00  0.00000000E+00
  0.00000000E+00  0.00000000E+00  0.00000000E+00
  0.00000000E+00  0.00000000E+00  0.00000000E+00
  0.00000000E+00  0.00000000E+00  0.00000000E+00
  0.00000000E+00  0.00000000E+00  0.00000000E+00
  0.00000000E+00  0.00000000E+00  0.00000000E+00
  0.00000000E+00  0.00000000E+00  0.00000000E+00
  0.00000000E+00  0.00000000E+00  0.00000000E+00
  0.00000000E+00  0.00000000E+00  0.00000000E+00
  0.00000000E+00  0.00000000E+00  0.00000000E+00
  0.00000000E+00  0.00000000E+00  0.00000000E+00
  0.00000000E+00  0.00000000E+00  0.00000000E+00
  0.00000000E+00  0.00000000E+00  0.00000000E+00
  0.00000000E+00  0.00000000E+00  0.00000000E+00
  0.00000000E+00  0.00000000E+00  0.00000000E+00
  0.00000000E+00  0.00000000E+00  0.00000000E+00
  0.00000000E+00  0.00000000E+00  0.00000000E+00
  0.00000000E+00  0.00000000E+00  0.00000000E+00
  0.00000000E+00  0.00000000E+00  0.00000000E+00
  0.00000000E+00  0.00000000E+00  0.00000000E+00
  0.00000000E+00  0.00000000E+00  0.00000000E+00
  0.00000000E+00  0.00000000E+00  0.00000000E+00
  0.00000000E+00  0.00000000E+00  0.00000000E+00
  0.00000000E+00  0.00000000E+00  0.00000000E+00
  0.00000000E+00  0.00000000E+00  0.00000000E+00
  0.00000000E+00  0.00000000E+00  0.00000000E+00
  0.00000000E+00  0.00000000E+00  0.00000000E+00
  0.00000000E+00  0.00000000E+00  0.00000000E+00
  0.00000000E+00  0.00000000E+00  0.00000000E+00
  0.00000000E+00  0.00000000E+00  0.00000000E+00
  0.00000000E+00  0.00000000E+00  0.00000000E+00
  0.00000000E+00  0.00000000E+00  0.00000000E+00
  0.00000000E+00  0.00000000E+00  0.00000000E+00
  0.00000000E+00  0.00000000E+00  0.00000000E+00
  0.00000000E+00  0.00000000E+00  0.00000000E+00
